 vasp.6.4.0 14Feb23 (build Mar 11 2024 14:58:30) complex                         
 executed on             epyc9004 date 2024.12.14  22:00:34
 running  192 mpi-ranks, on    2 nodes
 distrk:  each k-point on   96 cores,    2 groups
 distr:  one band on NCORE=   4 cores,   24 groups


--------------------------------------------------------------------------------------------------------


 INCAR:
   ENCUT = 520.000000
   SIGMA = 0.050000
   TIME = 0.050000
   NUPDOWN = 119.000000
   EDIFF = 1.00e-06
   EDIFFG = -2.00e-02
   SYMPREC = 1.00e-07
   ALGO = all
   GGA = PE
   PREC = accurate
   IBRION = 2
   ISIF = 2
   ISMEAR = 0
   ISPIN = 2
   ISYM = 0
   KPAR = 2
   LMAXMIX = 4
   LORBIT = 12
   NELM = 300
   NELMIN = 8
   NSW = 1
   NCORE = 4
   LASPH = .TRUE.
   LCHARG = .TRUE.
   LDAU = .TRUE.
   LWAVE = .TRUE.
   LREAL = auto
   LDAUL = 2 -1 -1 -1
   LDAUU = 5.300 0.000 0.000 0.000
   LDAUJ = 0.000 0.000 0.000 0.000
   MAGMOM = 1*4.3563 1*4.3510 1*4.3517 1*4.3573 1*4.3570 1*4.3573 1*4.3533 1*4.3570 1*4.3450 1*4.3530 1*4.3533 1*3.7840 1*4.3570 1*4.3567 1*4.3537 1*4.3570 1*4.3567 2*4.3580 1*4.3577 2*4.3570 1*4.3580 1*4.3570 1*0.1030 1*0.0900 1*0.1053 1*0.1020 1*0.1080 1*0.1217 1*0.0887 1*0.1043 1*0.1397 1*0.1223 1*0.1417 1*0.1337 1*0.1170 1*0.1353 1*0.1413 1*0.1317 1*0.1030 1*0.0967 1*0.1020 1*0.1040 1*0.1083 1*0.1113 1*0.0987 1*0.1073 1*0.1390 1*0.1353 1*0.1363 1*0.1333 1*0.1363 1*0.1383 1*0.1377 1*0.1363 1*0.1110 1*0.0960 1*0.1050 1*0.0310 1*0.0970 1*0.1177 1*0.0953 1*0.0490 1*0.1417 1*0.1353 1*0.1160 1*0.1023 1*0.1423 1*0.0990 1*0.1423 1*0.1297 1*0.1050 1*0.1003 1*0.1013 1*0.0990 1*0.1050 1*0.1107 1*0.0993 1*0.1070 1*0.1373 1*0.1387 1*0.1367 1*0.1377 1*0.1357 1*0.1383 1*0.1387 1*0.1380 1*0.1033 2*0.1030 1*0.1017 2*0.1080 1*0.1060 1*0.1047 1*0.1407 1*0.1393 1*0.1373 1*0.1357 1*0.1377 1*0.1343 1*0.1403 1*0.1387 2*0.1030 2*0.1040 1*0.1087 1*0.1090 1*0.1060 1*0.1067 1*0.1383 1*0.1393 1*0.1377 1*0.1387 1*0.1383 1*0.1337 1*0.1390 1*0.1387 1*0.0167 1*0.0157 1*0.0170 2*0.0163 1*0.0153 1*0.0170 1*0.0160 1*0.0150 1*0.0163 3*0.0170 1*0.0157 1*0.0170 1*0.0150 1*0.0163 2*0.0170 2*0.0167 2*0.0170 1*0.0160 1*0.0010

 POTCAR:    PAW_PBE Fe_pv 02Aug2007               
 POTCAR:    PAW_PBE O 08Apr2002                   
 POTCAR:    PAW_PBE P 06Sep2000                   
 POTCAR:    PAW_PBE Na_pv 19Sep2006               
 -----------------------------------------------------------------------------
|                                                                             |
|           W    W    AA    RRRRR   N    N  II  N    N   GGGG   !!!           |
|           W    W   A  A   R    R  NN   N  II  NN   N  G    G  !!!           |
|           W    W  A    A  R    R  N N  N  II  N N  N  G       !!!           |
|           W WW W  AAAAAA  RRRRR   N  N N  II  N  N N  G  GGG   !            |
|           WW  WW  A    A  R   R   N   NN  II  N   NN  G    G                |
|           W    W  A    A  R    R  N    N  II  N    N   GGGG   !!!           |
|                                                                             |
|     For optimal performance we recommend to set                             |
|       NCORE = 2 up to number-of-cores-per-socket                            |
|     NCORE specifies how many cores store one orbital (NPAR=cpu/NCORE).      |
|     This setting can greatly improve the performance of VASP for DFT.       |
|     The default, NCORE=1 might be grossly inefficient on modern             |
|     multi-core architectures or massively parallel machines. Do your        |
|     own testing! More info at https://www.vasp.at/wiki/index.php/NCORE      |
|     Unfortunately you need to use the default for GW and RPA                |
|     calculations (for HF NCORE is supported but not extensively tested      |
|     yet).                                                                   |
|                                                                             |
 -----------------------------------------------------------------------------

 POTCAR:    PAW_PBE Fe_pv 02Aug2007               
   VRHFIN =Fe:  3pd7s1                                                                              
   LEXCH  = PE                                                                                      
   EATOM  =  2457.4239 eV,  180.6156 Ry                                                             
                                                                                                    
   TITEL  = PAW_PBE Fe_pv 02Aug2007                                                                 
   LULTRA =        F    use ultrasoft PP ?                                                          
   IUNSCR =        1    unscreen: 0-lin 1-nonlin 2-no                                               
   RPACOR =    1.750    partial core radius                                                         
   POMASS =   55.847; ZVAL   =   14.000    mass and valenz                                          
   RCORE  =    2.200    outmost cutoff radius                                                       
   RWIGS  =    2.200; RWIGS  =    1.164    wigner-seitz radius (au A)                               
   ENMAX  =  293.238; ENMIN  =  219.928 eV                                                          
   ICORE  =        3    local potential                                                             
   LCOR   =        T    correct aug charges                                                         
   LPAW   =        T    paw PP                                                                      
   EAUG   =  578.342                                                                                
   DEXC   =    0.000                                                                                
   RMAX   =    2.249    core radius for proj-oper                                                   
   RAUG   =    1.300    factor for augmentation sphere                                              
   RDEP   =    2.296    radius for radial grids                                                     
   RDEPT  =    1.766    core radius for aug-charge                                                  
                                                                                                    
   Atomic configuration                                                                             
    8 entries                                                                                       
     n  l   j            E        occ.                                                              
     1  0  0.50     -6993.8440   2.0000                                                             
     2  0  0.50      -814.6047   2.0000                                                             
     2  1  1.50      -693.3689   6.0000                                                             
     3  0  0.50       -89.4732   2.0000                                                             
     3  1  1.50       -55.6373   6.0000                                                             
     3  2  2.50        -3.8151   7.0000                                                             
     4  0  0.50        -4.2551   1.0000                                                             
     4  3  2.50        -1.3606   0.0000                                                             
   Description                                                                                      
     l       E           TYP  RCUT    TYP  RCUT                                                     
     1    -55.6372668     23  2.000                                                                 
     1     -5.4423304     23  2.000                                                                 
     2     -3.8151096     23  2.200                                                                 
     2     -5.1756922     23  2.200                                                                 
     0     -4.2550951     23  2.200                                                                 
     0     27.2116520     23  2.200                                                                 
     3     -1.3605826     23  2.200                                                                 
  local pseudopotential read in
  partial core-charges read in
  partial kinetic energy density read in
  atomic valenz-charges read in
  non local Contribution for L=           1  read in
    real space projection operators read in
  non local Contribution for L=           1  read in
    real space projection operators read in
  non local Contribution for L=           2  read in
    real space projection operators read in
  non local Contribution for L=           2  read in
    real space projection operators read in
  non local Contribution for L=           0  read in
    real space projection operators read in
  non local Contribution for L=           0  read in
    real space projection operators read in
    PAW grid and wavefunctions read in

   number of l-projection  operators is LMAX  =           6
   number of lm-projection operators is LMMAX =          18

 POTCAR:    PAW_PBE O 08Apr2002                   
   VRHFIN =O: s2p4                                                                                  
   LEXCH  = PE                                                                                      
   EATOM  =   432.3788 eV,   31.7789 Ry                                                             
                                                                                                    
   TITEL  = PAW_PBE O 08Apr2002                                                                     
   LULTRA =        F    use ultrasoft PP ?                                                          
   IUNSCR =        1    unscreen: 0-lin 1-nonlin 2-no                                               
   RPACOR =    1.200    partial core radius                                                         
   POMASS =   16.000; ZVAL   =    6.000    mass and valenz                                          
   RCORE  =    1.520    outmost cutoff radius                                                       
   RWIGS  =    1.550; RWIGS  =    0.820    wigner-seitz radius (au A)                               
   ENMAX  =  400.000; ENMIN  =  300.000 eV                                                          
   ICORE  =        2    local potential                                                             
   LCOR   =        T    correct aug charges                                                         
   LPAW   =        T    paw PP                                                                      
   EAUG   =  605.392                                                                                
   DEXC   =    0.000                                                                                
   RMAX   =    1.553    core radius for proj-oper                                                   
   RAUG   =    1.300    factor for augmentation sphere                                              
   RDEP   =    1.550    radius for radial grids                                                     
   RDEPT  =    1.329    core radius for aug-charge                                                  
                                                                                                    
   Atomic configuration                                                                             
    4 entries                                                                                       
     n  l   j            E        occ.                                                              
     1  0  0.50      -514.6923   2.0000                                                             
     2  0  0.50       -23.9615   2.0000                                                             
     2  1  0.50        -9.0305   4.0000                                                             
     3  2  1.50        -9.5241   0.0000                                                             
   Description                                                                                      
     l       E           TYP  RCUT    TYP  RCUT                                                     
     0    -23.9615318     23  1.200                                                                 
     0     -9.5240782     23  1.200                                                                 
     1     -9.0304911     23  1.520                                                                 
     1      8.1634956     23  1.520                                                                 
     2     -9.5240782      7  1.500                                                                 
  local pseudopotential read in
  partial core-charges read in
  partial kinetic energy density read in
  kinetic energy density of atom read in
  atomic valenz-charges read in
  non local Contribution for L=           0  read in
    real space projection operators read in
  non local Contribution for L=           0  read in
    real space projection operators read in
  non local Contribution for L=           1  read in
    real space projection operators read in
  non local Contribution for L=           1  read in
    real space projection operators read in
    PAW grid and wavefunctions read in

   number of l-projection  operators is LMAX  =           4
   number of lm-projection operators is LMMAX =           8

 POTCAR:    PAW_PBE P 06Sep2000                   
   VRHFIN =P : s2p3                                                                                 
   LEXCH  = PE                                                                                      
   EATOM  =   176.0430 eV,   12.9388 Ry                                                             
                                                                                                    
   TITEL  = PAW_PBE P 06Sep2000                                                                     
   LULTRA =        F    use ultrasoft PP ?                                                          
   IUNSCR =        1    unscreen: 0-lin 1-nonlin 2-no                                               
   RPACOR =    1.500    partial core radius                                                         
   POMASS =   30.974; ZVAL   =    5.000    mass and valenz                                          
   RCORE  =    1.900    outmost cutoff radius                                                       
   RWIGS  =    2.330; RWIGS  =    1.233    wigner-seitz radius (au A)                               
   ENMAX  =  255.040; ENMIN  =  191.280 eV                                                          
   ICORE  =        2    local potential                                                             
   LCOR   =        T    correct aug charges                                                         
   LPAW   =        T    paw PP                                                                      
   EAUG   =  342.924                                                                                
   DEXC   =    0.000                                                                                
   RMAX   =    1.935    core radius for proj-oper                                                   
   RAUG   =    1.300    factor for augmentation sphere                                              
   RDEP   =    1.931    radius for radial grids                                                     
   RDEPT  =    1.794    core radius for aug-charge                                                  
                                                                                                    
   Atomic configuration                                                                             
    6 entries                                                                                       
     n  l   j            E        occ.                                                              
     1  0  0.50     -2084.0982   2.0000                                                             
     2  0  0.50      -173.9859   2.0000                                                             
     2  1  1.50      -124.4865   6.0000                                                             
     3  0  0.50       -13.9692   2.0000                                                             
     3  1  0.50        -5.5067   3.0000                                                             
     3  2  1.50        -5.4423   0.0000                                                             
   Description                                                                                      
     l       E           TYP  RCUT    TYP  RCUT                                                     
     0    -13.9691527     23  1.900                                                                 
     0    -11.7794650     23  1.900                                                                 
     1     -5.5066937     23  1.900                                                                 
     1     -0.2556953     23  1.900                                                                 
     2     -5.4423304     23  1.900                                                                 
  local pseudopotential read in
  partial core-charges read in
  partial kinetic energy density read in
  atomic valenz-charges read in
  non local Contribution for L=           0  read in
    real space projection operators read in
  non local Contribution for L=           0  read in
    real space projection operators read in
  non local Contribution for L=           1  read in
    real space projection operators read in
  non local Contribution for L=           1  read in
    real space projection operators read in
    PAW grid and wavefunctions read in

   number of l-projection  operators is LMAX  =           4
   number of lm-projection operators is LMMAX =           8

 POTCAR:    PAW_PBE Na_pv 19Sep2006               
   VRHFIN =Na: p6s1                                                                                 
   LEXCH  = PE                                                                                      
   EATOM  =   766.0439 eV,   56.3026 Ry                                                             
                                                                                                    
   TITEL  = PAW_PBE Na_pv 19Sep2006                                                                 
   LULTRA =        F    use ultrasoft PP ?                                                          
   IUNSCR =        1    unscreen: 0-lin 1-nonlin 2-no                                               
   RPACOR =    1.800    partial core radius                                                         
   POMASS =   22.990; ZVAL   =    7.000    mass and valenz                                          
   RCORE  =    2.200    outmost cutoff radius                                                       
   RWIGS  =    2.200; RWIGS  =    1.164    wigner-seitz radius (au A)                               
   ENMAX  =  259.561; ENMIN  =  194.671 eV                                                          
   ICORE  =        2    local potential                                                             
   LCOR   =        T    correct aug charges                                                         
   LPAW   =        T    paw PP                                                                      
   EAUG   =  368.056                                                                                
   DEXC   =    0.000                                                                                
   RMAX   =    2.245    core radius for proj-oper                                                   
   RAUG   =    1.300    factor for augmentation sphere                                              
   RDEP   =    2.259    radius for radial grids                                                     
   RDEPT  =    1.738    core radius for aug-charge                                                  
                                                                                                    
   Atomic configuration                                                                             
    5 entries                                                                                       
     n  l   j            E        occ.                                                              
     1  0  0.50     -1033.6933   2.0000                                                             
     2  0  0.50       -56.7526   2.0000                                                             
     2  1  1.50       -28.6721   6.0000                                                             
     3  0  0.50        -2.7440   1.0000                                                             
     3  2  1.50        -1.3606   0.0000                                                             
   Description                                                                                      
     l       E           TYP  RCUT    TYP  RCUT                                                     
     1    -28.6720912     23  2.000                                                                 
     1      6.8029130     23  2.000                                                                 
     0     -2.7439560     23  2.200                                                                 
     0     34.0145650     23  2.200                                                                 
     2     -1.3605826     23  2.200                                                                 
  local pseudopotential read in
  partial core-charges read in
  partial kinetic energy density read in
  atomic valenz-charges read in
  non local Contribution for L=           1  read in
    real space projection operators read in
  non local Contribution for L=           1  read in
    real space projection operators read in
  non local Contribution for L=           0  read in
    real space projection operators read in
  non local Contribution for L=           0  read in
    real space projection operators read in
    PAW grid and wavefunctions read in

   number of l-projection  operators is LMAX  =           4
   number of lm-projection operators is LMMAX =           8

 Optimization of the real space projectors (new method)

 maximal supplied QI-value         = 17.01
 optimisation between [QCUT,QGAM] = [ 11.57, 23.30] = [ 37.45,152.03] Ry 
 Optimized for a Real-space Cutoff    1.45 Angstroem

   l    n(q)    QCUT    max X(q) W(low)/X(q) W(high)/X(q)  e(spline) 
   1     10    11.565     4.267    0.91E-04    0.15E-03    0.13E-06
   1     10    11.565     5.750    0.14E-03    0.22E-03    0.20E-06
   2      9    11.565    53.656    0.13E-03    0.57E-04    0.16E-06
   2      9    11.565    49.521    0.13E-03    0.59E-04    0.16E-06
   0     10    11.565    31.246    0.61E-04    0.74E-05    0.89E-07
   0     10    11.565    12.201    0.44E-04    0.68E-05    0.74E-07
 Optimization of the real space projectors (new method)

 maximal supplied QI-value         = 24.76
 optimisation between [QCUT,QGAM] = [ 11.64, 23.27] = [ 37.91,151.63] Ry 
 Optimized for a Real-space Cutoff    1.14 Angstroem

   l    n(q)    QCUT    max X(q) W(low)/X(q) W(high)/X(q)  e(spline) 
   0      8    11.635    20.381    0.10E-03    0.33E-03    0.24E-06
   0      8    11.635    15.268    0.11E-03    0.35E-03    0.26E-06
   1      7    11.635     5.964    0.24E-03    0.31E-03    0.30E-06
   1      7    11.635     5.382    0.22E-03    0.25E-03    0.26E-06
 Optimization of the real space projectors (new method)

 maximal supplied QI-value         = 19.84
 optimisation between [QCUT,QGAM] = [ 11.51, 23.22] = [ 37.09,150.92] Ry 
 Optimized for a Real-space Cutoff    1.21 Angstroem

   l    n(q)    QCUT    max X(q) W(low)/X(q) W(high)/X(q)  e(spline) 
   0      8    11.508   160.924    0.96E-04    0.17E-03    0.52E-07
   0      8    11.508   130.086    0.95E-04    0.17E-03    0.51E-07
   1      8    11.508    74.434    0.16E-03    0.74E-04    0.91E-07
   1      8    11.508    49.120    0.16E-03    0.71E-04    0.89E-07
 Optimization of the real space projectors (new method)

 maximal supplied QI-value         = 17.01
 optimisation between [QCUT,QGAM] = [ 11.57, 23.30] = [ 37.45,152.03] Ry 
 Optimized for a Real-space Cutoff    1.45 Angstroem

   l    n(q)    QCUT    max X(q) W(low)/X(q) W(high)/X(q)  e(spline) 
   1     10    11.565     4.940    0.87E-04    0.13E-03    0.13E-06
   1     10    11.565     6.253    0.13E-03    0.19E-03    0.20E-06
   0     10    11.565    37.438    0.53E-04    0.73E-05    0.79E-07
   0     10    11.565     9.606    0.27E-04    0.60E-05    0.56E-07
  PAW_PBE Fe_pv 02Aug2007               :
 energy of atom  1       EATOM=-2457.4239
 kinetic energy error for atom=    0.0062 (will be added to EATOM!!)
  PAW_PBE O 08Apr2002                   :
 energy of atom  2       EATOM= -432.3788
 kinetic energy error for atom=    0.0208 (will be added to EATOM!!)
  PAW_PBE P 06Sep2000                   :
 energy of atom  3       EATOM= -176.0430
 kinetic energy error for atom=    0.0011 (will be added to EATOM!!)
  PAW_PBE Na_pv 19Sep2006               :
 energy of atom  4       EATOM= -766.0439
 kinetic energy error for atom=    0.0019 (will be added to EATOM!!)


 POSCAR: Fe O  P  Na
  positions in cartesian coordinates
  No initial velocities read in
 exchange correlation table for  LEXCH =        8
   RHO(1)=    0.500       N(1)  =     2000
   RHO(2)=  100.500       N(2)  =     4000



--------------------------------------------------------------------------------------------------------


 ion  position               nearest neighbor table
   1  0.274  0.082  0.479-  25 1.93  45 1.95  98 2.07  40 2.08  49 2.15  55 2.18 125 2.82
   2  0.224  0.247  0.229-  30 1.92  26 1.96  39 2.04  65 2.08  40 2.17  34 2.22 122 2.86
   3  0.724  0.250  0.021-  27 1.93  47 1.96  70 2.05  36 2.08  51 2.17  53 2.17 127 2.82
   4  0.774  0.082  0.271-  28 1.94  32 1.96  35 2.03 101 2.07  38 2.16  36 2.18 124 2.82
   5  0.275  0.082  0.979-  41 1.93  29 1.94 114 2.06  56 2.07  33 2.16  39 2.17 121 2.82
   6  0.224  0.248  0.733-  42 1.93  46 1.93  55 2.07  81 2.10  56 2.14  50 2.17 126 2.81
   7  0.727  0.250  0.521-  43 1.93  31 1.98  37 2.06  86 2.08  52 2.09  35 2.22 123 2.79
   8  0.774  0.083  0.771-  44 1.93  48 1.95 117 2.08  51 2.08  54 2.17  52 2.17 128 2.82
   9  0.269  0.419  0.492-  57 1.92  77 1.95  87 2.07  81 2.11  72 2.11  34 2.15 133 2.72
  10  0.227  0.585  0.227-  62 1.93  58 1.93  97 2.07  71 2.07  66 2.13  72 2.26 130 2.84
  11  0.726  0.585  0.021-  59 1.94  79 1.97  68 2.01 102 2.08  85 2.16  83 2.19 135 2.82
  12  0.785  0.418  0.273-  64 1.98  60 2.02  67 2.17  37 2.19  68 2.32  70 2.36
  13  0.274  0.418  0.974-  73 1.92  61 1.93  88 2.07  50 2.08  71 2.15  65 2.18 129 2.82
  14  0.225  0.586  0.730-  74 1.93  78 1.94 113 2.06  87 2.10  82 2.14  88 2.15 134 2.81
  15  0.729  0.584  0.521-  75 1.93  63 1.96  67 2.06  84 2.09 118 2.09  69 2.22 131 2.79
  16  0.779  0.417  0.767-  76 1.89  80 1.92  83 2.09  53 2.10  84 2.15  86 2.15 136 2.79
  17  0.275  0.750  0.478-  89 1.93 109 1.94 104 2.08  66 2.10 113 2.16 119 2.17 141 2.83
  18  0.226  0.917  0.229-  90 1.93  94 1.95 103 2.06  33 2.07  98 2.16 104 2.17 138 2.82
  19  0.725  0.917  0.021-  91 1.93 111 1.95 100 2.07  38 2.07 117 2.17 115 2.17 143 2.82
  20  0.775  0.751  0.271-  92 1.94  96 1.96  69 2.03  99 2.07 100 2.17 102 2.17 140 2.83
  21  0.275  0.751  0.978- 105 1.93  93 1.94 120 2.07  82 2.07  97 2.16 103 2.16 137 2.82
  22  0.225  0.917  0.728- 106 1.93 110 1.95 119 2.07  49 2.08 120 2.16 114 2.17 142 2.83
  23  0.725  0.917  0.521- 107 1.93  95 1.95 116 2.07  54 2.08  99 2.17 101 2.17 139 2.83
  24  0.774  0.750  0.771- 108 1.93 112 1.95  85 2.08 115 2.08 118 2.16 116 2.17 144 2.82
  25  0.122  0.083  0.357- 121 1.53   1 1.93
  26  0.381  0.251  0.110- 126 1.54   2 1.96
  27  0.874  0.250  0.145- 123 1.53   3 1.93
  28  0.620  0.083  0.391- 128 1.53   4 1.94
  29  0.445  0.083  0.076- 124 1.53   5 1.94
  30  0.055  0.248  0.324- 123 1.53   2 1.92
  31  0.552  0.252  0.426- 122 1.53   7 1.98
  32  0.946  0.082  0.172- 121 1.52   4 1.96
  33  0.170  0.015  0.129- 121 1.58  18 2.07   5 2.16
  34  0.325  0.316  0.388- 122 1.59   9 2.15 145 2.18   2 2.22
  35  0.833  0.178  0.370- 123 1.58   4 2.03   7 2.22
  36  0.669  0.151  0.120- 124 1.58   3 2.08   4 2.18
  37  0.832  0.313  0.379- 123 1.56   7 2.06  12 2.19
  38  0.669  0.015  0.120- 124 1.58  19 2.07   4 2.16
  39  0.170  0.150  0.129- 121 1.59   2 2.04   5 2.17
  40  0.330  0.181  0.381- 122 1.58   1 2.08   2 2.17
  41  0.121  0.082  0.858- 125 1.53   5 1.93
  42  0.378  0.247  0.613- 122 1.52   6 1.93
  43  0.880  0.249  0.644- 127 1.52   7 1.93
  44  0.621  0.083  0.892- 124 1.53   8 1.93
  45  0.445  0.083  0.576- 128 1.53   1 1.95
  46  0.054  0.249  0.829- 127 1.53   6 1.93
  47  0.553  0.248  0.921- 126 1.52   3 1.96
  48  0.945  0.083  0.675- 125 1.53   8 1.95
  49  0.169  0.015  0.629- 125 1.58  22 2.08   1 2.15
  50  0.329  0.317  0.881- 126 1.58  13 2.08   6 2.17
  51  0.829  0.182  0.872- 127 1.58   8 2.08   3 2.17
  52  0.669  0.151  0.619- 128 1.58   7 2.09   8 2.17
  53  0.831  0.318  0.870- 127 1.58  16 2.10   3 2.17
  54  0.669  0.015  0.620- 128 1.58  23 2.08   8 2.17
  55  0.168  0.151  0.630- 125 1.58   6 2.07   1 2.18
  56  0.328  0.182  0.883- 126 1.58   5 2.07   6 2.14
  57  0.127  0.418  0.360- 129 1.53   9 1.92
  58  0.381  0.585  0.106- 134 1.53  10 1.93
  59  0.877  0.585  0.145- 131 1.53  11 1.94
  60  0.622  0.419  0.396- 136 1.52  12 2.02 145 2.15
  61  0.449  0.422  0.058- 132 1.55  13 1.93 145 2.12
  62  0.058  0.586  0.324- 131 1.53  10 1.93
  63  0.556  0.585  0.426- 130 1.52  15 1.96
  64  0.956  0.416  0.169- 129 1.50  12 1.98
  65  0.183  0.350  0.135- 129 1.59   2 2.08  13 2.18
  66  0.330  0.649  0.379- 130 1.58  17 2.10  10 2.13
  67  0.835  0.522  0.379- 131 1.56  15 2.06  12 2.17
  68  0.670  0.486  0.108- 132 1.56  11 2.01  12 2.32
  69  0.836  0.657  0.371- 131 1.58  20 2.03  15 2.22
  70  0.661  0.349  0.111- 132 1.57   3 2.05  12 2.36
  71  0.179  0.485  0.132- 129 1.59  10 2.07  13 2.15
  72  0.337  0.513  0.380- 130 1.59   9 2.11  10 2.26
  73  0.116  0.417  0.861- 133 1.52  13 1.92
  74  0.377  0.583  0.607- 130 1.53  14 1.93
  75  0.881  0.585  0.643- 135 1.52  15 1.93
  76  0.624  0.417  0.879- 132 1.52  16 1.89
  77  0.446  0.416  0.578- 136 1.54   9 1.95
  78  0.056  0.585  0.828- 135 1.53  14 1.94
  79  0.555  0.585  0.920- 134 1.52  11 1.97
  80  0.946  0.416  0.670- 133 1.52  16 1.92
  81  0.170  0.349  0.636- 133 1.58   6 2.10   9 2.11
  82  0.331  0.653  0.878- 134 1.58  21 2.07  14 2.14
  83  0.833  0.516  0.870- 135 1.58  16 2.09  11 2.19
  84  0.671  0.485  0.622- 136 1.58  15 2.09  16 2.15
  85  0.831  0.652  0.872- 135 1.58  24 2.08  11 2.16
  86  0.672  0.349  0.621- 136 1.58   7 2.08  16 2.15
  87  0.169  0.485  0.634- 133 1.58   9 2.07  14 2.10
  88  0.329  0.518  0.878- 134 1.59  13 2.07  14 2.15
  89  0.123  0.750  0.356- 137 1.53  17 1.93
  90  0.379  0.917  0.107- 142 1.53  18 1.93
  91  0.878  0.917  0.142- 139 1.53  19 1.93
  92  0.621  0.751  0.392- 144 1.53  20 1.94
  93  0.445  0.751  0.076- 140 1.53  21 1.94
  94  0.055  0.917  0.325- 139 1.53  18 1.95
  95  0.555  0.917  0.424- 138 1.53  23 1.95
  96  0.946  0.752  0.172- 137 1.52  20 1.96
  97  0.170  0.683  0.127- 137 1.58  10 2.07  21 2.16
  98  0.331  0.984  0.379- 138 1.58   1 2.07  18 2.16
  99  0.831  0.849  0.371- 139 1.58  20 2.07  23 2.17
 100  0.669  0.819  0.120- 140 1.58  19 2.07  20 2.17
 101  0.831  0.985  0.371- 139 1.58   4 2.07  23 2.17
 102  0.669  0.683  0.120- 140 1.58  11 2.08  20 2.17
 103  0.170  0.819  0.129- 137 1.58  18 2.06  21 2.16
 104  0.331  0.849  0.379- 138 1.58  17 2.08  18 2.17
 105  0.122  0.751  0.857- 141 1.53  21 1.93
 106  0.378  0.917  0.607- 138 1.53  22 1.93
 107  0.878  0.917  0.642- 143 1.53  23 1.93
 108  0.622  0.751  0.892- 140 1.53  24 1.93
 109  0.445  0.749  0.575- 144 1.53  17 1.94
 110  0.055  0.917  0.826- 143 1.53  22 1.95
 111  0.555  0.917  0.923- 142 1.53  19 1.95
 112  0.945  0.751  0.674- 141 1.53  24 1.95
 113  0.169  0.683  0.629- 141 1.58  14 2.06  17 2.16
 114  0.331  0.984  0.879- 142 1.58   5 2.06  22 2.17
 115  0.831  0.849  0.870- 143 1.58  24 2.08  19 2.17
 116  0.668  0.818  0.620- 144 1.58  23 2.07  24 2.17
 117  0.830  0.985  0.870- 143 1.58   8 2.08  19 2.17
 118  0.671  0.683  0.620- 144 1.58  15 2.09  24 2.16
 119  0.169  0.818  0.628- 141 1.58  22 2.07  17 2.17
 120  0.331  0.849  0.879- 142 1.58  21 2.07  22 2.16
 121  0.096  0.082  0.203-  32 1.52  25 1.53  33 1.58  39 1.59   5 2.82
 122  0.402  0.248  0.459-  42 1.52  31 1.53  40 1.58  34 1.59   2 2.86
 123  0.903  0.247  0.299-  27 1.53  30 1.53  37 1.56  35 1.58   7 2.79
 124  0.596  0.083  0.046-  44 1.53  29 1.53  36 1.58  38 1.58   4 2.82
 125  0.095  0.083  0.704-  48 1.53  41 1.53  55 1.58  49 1.58   1 2.82
 126  0.404  0.250  0.955-  47 1.52  26 1.54  56 1.58  50 1.58   6 2.81
 127  0.904  0.249  0.798-  43 1.52  46 1.53  53 1.58  51 1.58   3 2.82
 128  0.596  0.083  0.546-  28 1.53  45 1.53  52 1.58  54 1.58   8 2.82
 129  0.103  0.417  0.205-  64 1.50  57 1.53  71 1.59  65 1.59  13 2.82
 130  0.406  0.583  0.454-  63 1.52  74 1.53  66 1.58  72 1.59  10 2.84
 131  0.906  0.587  0.299-  59 1.53  62 1.53  67 1.56  69 1.58  15 2.79
 132  0.602  0.419  0.033-  76 1.52  61 1.55  68 1.56  70 1.57 145 2.77
 133  0.094  0.417  0.707-  80 1.52  73 1.52  81 1.58  87 1.58   9 2.72
 134  0.405  0.585  0.952-  79 1.52  58 1.53  82 1.58  88 1.59  14 2.81
 135  0.905  0.585  0.798-  75 1.52  78 1.53  83 1.58  85 1.58  11 2.82
 136  0.598  0.417  0.549-  60 1.52  77 1.54  84 1.58  86 1.58  16 2.79
 137  0.096  0.751  0.202-  96 1.52  89 1.53 103 1.58  97 1.58  21 2.82
 138  0.404  0.916  0.453- 106 1.53  95 1.53 104 1.58  98 1.58  18 2.82
 139  0.904  0.917  0.296-  91 1.53  94 1.53  99 1.58 101 1.58  23 2.83
 140  0.596  0.751  0.046- 108 1.53  93 1.53 102 1.58 100 1.58  20 2.83
 141  0.096  0.751  0.703- 105 1.53 112 1.53 119 1.58 113 1.58  17 2.83
 142  0.405  0.917  0.953-  90 1.53 111 1.53 120 1.58 114 1.58  22 2.83
 143  0.904  0.917  0.796- 107 1.53 110 1.53 115 1.58 117 1.58  19 2.82
 144  0.596  0.750  0.546-  92 1.53 109 1.53 118 1.58 116 1.58  24 2.82
 145  0.456  0.389  0.267-  61 2.12  60 2.15  34 2.18 132 2.77


IMPORTANT INFORMATION: All symmetrisations will be switched off!
NOSYMM: (Re-)initialisation of all symmetry stuff for point group C_1.


----------------------------------------------------------------------------------------

                                     Primitive cell                                     

  volume of cell :    1723.3780

  direct lattice vectors                    reciprocal lattice vectors
     9.962489075 -0.000069663 -0.000154526     0.100376522  0.000000553 -0.000000819
    -0.000097698 17.717656860 -0.000226836     0.000000395  0.056440872 -0.000000631
     0.000079674  0.000109170  9.763519320     0.000001589  0.000001311  0.102422084

  length of vectors
     9.962489076 17.717656862  9.763519321     0.100376522  0.056440872  0.102422084

  position of ions in fractional coordinates (direct lattice)
     0.274033490  0.081791767  0.479434924
     0.223757216  0.246880677  0.229054979
     0.723643341  0.250469796  0.020927445
     0.774332928  0.082398321  0.270638897
     0.274693635  0.081987592  0.978745312
     0.223790470  0.247897000  0.732795489
     0.727333910  0.250349566  0.521470515
     0.773522894  0.083252349  0.770844811
     0.269260689  0.418531944  0.492328689
     0.226793625  0.585487093  0.226930421
     0.725838498  0.584688630  0.020841013
     0.785279523  0.418296772  0.272966838
     0.273667130  0.418357527  0.974209495
     0.225354347  0.586076198  0.730168385
     0.729130915  0.583874814  0.520997290
     0.778941953  0.417349714  0.767140265
     0.274967745  0.749979123  0.478128542
     0.225920151  0.916511843  0.228505856
     0.725457425  0.916822772  0.020863240
     0.775218324  0.751185867  0.270848911
     0.275055216  0.751125547  0.978009937
     0.225171716  0.916526944  0.728457073
     0.725222619  0.916702778  0.521161962
     0.774156404  0.750381150  0.770751510
     0.121800789  0.082592988  0.356950752
     0.381491077  0.251462945  0.110115239
     0.874356396  0.250200350  0.145017573
     0.620093432  0.082773291  0.391470150
     0.444856012  0.083075857  0.075806380
     0.054791082  0.247723255  0.323580429
     0.551947452  0.251586734  0.425582509
     0.945609866  0.082232864  0.172234801
     0.170033966  0.014948449  0.128863403
     0.325038738  0.316046127  0.388229066
     0.832570930  0.177754651  0.370215375
     0.668500854  0.150938970  0.119967252
     0.832246594  0.312541302  0.379203377
     0.669031817  0.015411899  0.119931186
     0.169982092  0.150145526  0.129094574
     0.330084061  0.181117541  0.381459448
     0.121461868  0.082473417  0.857731318
     0.377791149  0.247418390  0.612613525
     0.879769324  0.248631003  0.643893173
     0.620637028  0.082874706  0.891845977
     0.444889029  0.083011075  0.575893920
     0.054213729  0.248973365  0.829014238
     0.553250563  0.248303473  0.921122773
     0.944560365  0.082667901  0.674523331
     0.168771226  0.015172699  0.629073746
     0.329018512  0.317426124  0.880773112
     0.829438973  0.181736208  0.871748704
     0.668999880  0.150906726  0.619417536
     0.831229867  0.317603569  0.870392910
     0.669117269  0.015459350  0.620022799
     0.168395574  0.150527623  0.630215326
     0.327698213  0.182263580  0.883366502
     0.126783718  0.417813984  0.359605564
     0.380595337  0.584914570  0.105996790
     0.877144726  0.584865133  0.145178088
     0.622380678  0.418542499  0.395550034
     0.449273501  0.421535507  0.058196029
     0.057839621  0.585985843  0.323600243
     0.556316195  0.584512655  0.425611158
     0.955762950  0.415683753  0.168616152
     0.182741514  0.349753608  0.134770950
     0.329902199  0.649293714  0.379032951
     0.835069254  0.521861627  0.379239090
     0.670271626  0.486488963  0.107722458
     0.835542866  0.656595113  0.370822146
     0.661236997  0.348747766  0.110510657
     0.179018804  0.484555963  0.131563228
     0.337018897  0.512831370  0.379630551
     0.116167877  0.417182620  0.861371645
     0.376880940  0.582609529  0.607144626
     0.881226507  0.585243749  0.643472460
     0.623680223  0.416953849  0.879156826
     0.446062296  0.415811797  0.578239719
     0.056099950  0.585168534  0.828005938
     0.554973016  0.585337568  0.919783269
     0.946167150  0.416331640  0.670286836
     0.170144747  0.348947379  0.635525589
     0.330731640  0.652771799  0.878407398
     0.833294604  0.516219617  0.869558185
     0.670623853  0.485311155  0.622007431
     0.831143954  0.652111551  0.871545026
     0.671667135  0.349320065  0.620784570
     0.168880073  0.484542468  0.634312746
     0.328996115  0.517771957  0.877552056
     0.123038137  0.750320843  0.355980377
     0.378926299  0.916923707  0.106887220
     0.878208267  0.917008415  0.142438306
     0.621167804  0.750931694  0.391703985
     0.445186521  0.750998955  0.075604434
     0.055046552  0.916895389  0.325495673
     0.554794993  0.916813979  0.423641781
     0.946079796  0.751858969  0.172021292
     0.170066636  0.683481544  0.127324096
     0.330502493  0.984101070  0.379176438
     0.830968908  0.849336194  0.370774444
     0.669243826  0.818608381  0.120167228
     0.830879033  0.984579557  0.370679220
     0.668939667  0.683142299  0.120492495
     0.170375100  0.818742206  0.128548532
     0.331031507  0.848767643  0.379221789
     0.121881977  0.751111289  0.856769712
     0.378388033  0.916711772  0.607366880
     0.878140063  0.916844341  0.642223963
     0.621519082  0.750764766  0.892172007
     0.445207211  0.749393793  0.575087072
     0.054586035  0.916910612  0.825516318
     0.555062667  0.916814249  0.922963655
     0.945076529  0.750932750  0.673719526
     0.169200596  0.683211735  0.628766160
     0.330941112  0.984469296  0.878641256
     0.830530202  0.849166170  0.870377080
     0.668319761  0.818411761  0.620308906
     0.830351726  0.984560246  0.870389513
     0.670542250  0.683126771  0.620201137
     0.169258677  0.818458998  0.628234783
     0.330848938  0.849286380  0.878550312
     0.095648950  0.082319340  0.202943664
     0.402118585  0.247987236  0.458841220
     0.902748386  0.247414703  0.298763526
     0.595551564  0.083193974  0.046110567
     0.095019330  0.082657152  0.703787180
     0.403875522  0.249987436  0.954545969
     0.903564400  0.249197454  0.798130320
     0.595615339  0.083093006  0.545724950
     0.102553016  0.416996189  0.204610084
     0.405842720  0.582554688  0.453673600
     0.905827748  0.587019482  0.298880863
     0.602490656  0.418811215  0.032829069
     0.094432236  0.416583330  0.706898428
     0.405232167  0.584932519  0.951533877
     0.905429404  0.584682314  0.797577779
     0.597540085  0.417400127  0.549067243
     0.096283475  0.751024742  0.201969352
     0.404358763  0.916489663  0.453307747
     0.904315533  0.916938841  0.296464567
     0.595892325  0.750799502  0.046348632
     0.095557209  0.751042624  0.702828283
     0.404668629  0.916831407  0.952789066
     0.903830845  0.916872745  0.796338961
     0.596144900  0.750321330  0.545826433
     0.455620454  0.388800725  0.267343775

  ion indices of the primitive-cell ions
   primitive index   ion index
                 1           1
                 2           2
                 3           3
                 4           4
                 5           5
                 6           6
                 7           7
                 8           8
                 9           9
                10          10
                11          11
                12          12
                13          13
                14          14
                15          15
                16          16
                17          17
                18          18
                19          19
                20          20
                21          21
                22          22
                23          23
                24          24
                25          25
                26          26
                27          27
                28          28
                29          29
                30          30
                31          31
                32          32
                33          33
                34          34
                35          35
                36          36
                37          37
                38          38
                39          39
                40          40
                41          41
                42          42
                43          43
                44          44
                45          45
                46          46
                47          47
                48          48
                49          49
                50          50
                51          51
                52          52
                53          53
                54          54
                55          55
                56          56
                57          57
                58          58
                59          59
                60          60
                61          61
                62          62
                63          63
                64          64
                65          65
                66          66
                67          67
                68          68
                69          69
                70          70
                71          71
                72          72
                73          73
                74          74
                75          75
                76          76
                77          77
                78          78
                79          79
                80          80
                81          81
                82          82
                83          83
                84          84
                85          85
                86          86
                87          87
                88          88
                89          89
                90          90
                91          91
                92          92
                93          93
                94          94
                95          95
                96          96
                97          97
                98          98
                99          99
               100         100
               101         101
               102         102
               103         103
               104         104
               105         105
               106         106
               107         107
               108         108
               109         109
               110         110
               111         111
               112         112
               113         113
               114         114
               115         115
               116         116
               117         117
               118         118
               119         119
               120         120
               121         121
               122         122
               123         123
               124         124
               125         125
               126         126
               127         127
               128         128
               129         129
               130         130
               131         131
               132         132
               133         133
               134         134
               135         135
               136         136
               137         137
               138         138
               139         139
               140         140
               141         141
               142         142
               143         143
               144         144
               145         145

----------------------------------------------------------------------------------------



 KPOINTS: KPOINTS created by Atomic Simulation Env

Automatic generation of k-mesh.
 Grid dimensions read from file:
 generate k-points for:    3    1    3

 Generating k-lattice:

  Cartesian coordinates                     Fractional coordinates (reciprocal lattice)
     0.033458841  0.000000184 -0.000000273     0.333333333  0.000000000 -0.000000000
     0.000000395  0.056440872 -0.000000631    -0.000000000  1.000000000  0.000000000
     0.000000530  0.000000437  0.034140695     0.000000000 -0.000000000  0.333333333

  Length of vectors
     0.033458841  0.056440872  0.034140695

  Shift w.r.t. Gamma in fractional coordinates (k-lattice)
     0.000000000  0.000000000  0.000000000

 
 Subroutine IBZKPT returns following result:
 ===========================================
 
 Found      5 irreducible k-points:
 
 Following reciprocal coordinates:
            Coordinates               Weight
  0.000000  0.000000  0.000000      1.000000
  0.333333  0.000000  0.000000      2.000000
  0.000000  0.000000  0.333333      2.000000
  0.333333  0.000000  0.333333      2.000000
 -0.333333  0.000000  0.333333      2.000000
 
 Following cartesian coordinates:
            Coordinates               Weight
  0.000000  0.000000  0.000000      1.000000
  0.033459  0.000000 -0.000000      2.000000
  0.000001  0.000000  0.034141      2.000000
  0.033459  0.000001  0.034140      2.000000
 -0.033458  0.000000  0.034141      2.000000
 


--------------------------------------------------------------------------------------------------------




 Dimension of arrays:
   k-points           NKPTS =      5   k-points in BZ     NKDIM =      5   number of bands    NBANDS=    696
   number of dos      NEDOS =    301   number of ions     NIONS =    145
   non local maximal  LDIM  =      6   non local SUM 2l+1 LMDIM =     18
   total plane-waves  NPLWV = 896000
   max r-space proj   IRMAX =   6631   max aug-charges    IRDMAX=  16019
   dimension x,y,z NGX =    80 NGY =  140 NGZ =   80
   dimension x,y,z NGXF=   160 NGYF=  280 NGZF=  160
   support grid    NGXF=   160 NGYF=  280 NGZF=  160
   ions per type =              24  96  24   1
   NGX,Y,Z   is equivalent  to a cutoff of  13.35, 13.14, 13.62 a.u.
   NGXF,Y,Z  is equivalent  to a cutoff of  26.70, 26.27, 27.24 a.u.

 SYSTEM =  unknown system                          
 POSCAR =  Fe O  P  Na                             

 Startparameter for this run:
   NWRITE =      2    write-flag & timer
   PREC   = accura    normal or accurate (medium, high low for compatibility)
   ISTART =      1    job   : 0-new  1-cont  2-samecut
   ICHARG =      0    charge: 1-file 2-atom 10-const
   ISPIN  =      2    spin polarized calculation?
   LNONCOLLINEAR =      F non collinear calculations
   LSORBIT =      F    spin-orbit coupling
   INIWAV =      1    electr: 0-lowe 1-rand  2-diag
   LASPH  =      T    aspherical Exc in radial PAW
 Electronic Relaxation 1
   ENCUT  =  520.0 eV  38.22 Ry    6.18 a.u.  18.52 32.94 18.15*2*pi/ulx,y,z
   ENINI  =  520.0     initial cutoff
   ENAUG  =  605.4 eV  augmentation charge cutoff
   NELM   =    300;   NELMIN=  8; NELMDL=  0     # of ELM steps 
   EDIFF  = 0.1E-05   stopping-criterion for ELM
   LREAL  =      T    real-space projection
   NLSPLINE    = F    spline interpolate recip. space projectors
   LCOMPAT=      F    compatible to vasp.4.4
   GGA_COMPAT  = T    GGA compatible to vasp.4.4-vasp.4.6
   LMAXPAW     = -100 max onsite density
   LMAXMIX     =    4 max onsite mixed and CHGCAR
   VOSKOWN=      0    Vosko Wilk Nusair interpolation
   ROPT   =   -0.00025  -0.00025  -0.00025  -0.00025
 Ionic relaxation
   EDIFFG = -.2E-01   stopping-criterion for IOM
   NSW    =      1    number of steps for IOM
   NBLOCK =      1;   KBLOCK =      1    inner block; outer block 
   IBRION =      2    ionic relax: 0-MD 1-quasi-New 2-CG
   NFREE  =      1    steps in history (QN), initial steepest desc. (CG)
   ISIF   =      2    stress and relaxation
   IWAVPR =     11    prediction:  0-non 1-charg 2-wave 3-comb
   ISYM   =      0    0-nonsym 1-usesym 2-fastsym
   LCORR  =      T    Harris-Foulkes like correction to forces

   POTIM  = 0.5000    time-step for ionic-motion
   TEIN   =    0.0    initial temperature
   TEBEG  =    0.0;   TEEND  =   0.0 temperature during run
   SMASS  =  -3.00    Nose mass-parameter (am)
   estimated Nose-frequenzy (Omega)   =  0.10E-29 period in steps = 0.13E+47 mass=  -0.227E-26a.u.
   SCALEE = 1.0000    scale energy and forces
   NPACO  =    256;   APACO  = 10.0  distance and # of slots for P.C.
   PSTRESS=    0.0 pullay stress

  Mass of Ions in am
   POMASS =  55.85 16.00 30.97 22.99
  Ionic Valenz
   ZVAL   =  14.00  6.00  5.00  7.00
  Atomic Wigner-Seitz radii
   RWIGS  =  -1.00 -1.00 -1.00 -1.00
  virtual crystal weights 
   VCA    =   1.00  1.00  1.00  1.00
   NELECT =    1039.0000    total number of electrons
   NUPDOWN=     119.0000    fix difference up-down

 DOS related values:
   EMIN   =  10.00;   EMAX   =-10.00  energy-range for DOS
   EFERMI =   0.00;   METHOD = LEGACY      
   ISMEAR =     0;   SIGMA  =   0.05  broadening in eV -4-tet -1-fermi 0-gaus

 Electronic relaxation 2 (details)
   IALGO  =     58    algorithm
   LDIAG  =      T    sub-space diagonalisation (order eigenvalues)
   LSUBROT=      F    optimize rotation matrix (better conditioning)
   TURBO    =      0    0=normal 1=particle mesh
   IRESTART =      0    0=no restart 2=restart with 2 vectors
   NREBOOT  =      0    no. of reboots
   NMIN     =      0    reboot dimension
   EREF     =   0.00    reference energy to select bands
   IMIX   =      4    mixing-type and parameters
     AMIX     =   0.40;   BMIX     =  1.00
     AMIX_MAG =   1.60;   BMIX_MAG =  1.00
     AMIN     =   0.10
     WC   =   100.;   INIMIX=   1;  MIXPRE=   1;  MAXMIX= -45

 Intra band minimization:
   WEIMIN = 0.0010     energy-eigenvalue tresh-hold
   EBREAK =  0.36E-09  absolut break condition
   DEPER  =   0.30     relativ break condition  

   TIME   =   0.05     timestep for ELM

  volume/ion in A,a.u.               =      11.89        80.21
  Fermi-wavevector in a.u.,A,eV,Ry     =   1.382993  2.613477 26.023433  1.912668
  Thomas-Fermi vector in A             =   2.507632

 Write flags
   LWAVE        =      T    write WAVECAR
   LDOWNSAMPLE  =      F    k-point downsampling of WAVECAR
   LCHARG       =      T    write CHGCAR
   LVTOT        =      F    write LOCPOT, total local potential
   LVHAR        =      F    write LOCPOT, Hartree potential only
   LELF         =      F    write electronic localiz. function (ELF)
   LORBIT       =     12    0 simple, 1 ext, 2 COOP (PROOUT), +10 PAW based schemes


 Dipole corrections
   LMONO  =      F    monopole corrections only (constant potential shift)
   LDIPOL =      F    correct potential (dipole corrections)
   IDIPOL =      0    1-x, 2-y, 3-z, 4-all directions 
   EPSILON=  1.0000000 bulk dielectric constant

 LDA+U is selected, type is set to LDAUTYPE =  2
   angular momentum for each species LDAUL =     2   -1   -1   -1
   U (eV)           for each species LDAUU =   5.3  0.0  0.0  0.0
   J (eV)           for each species LDAUJ =   0.0  0.0  0.0  0.0
 Exchange correlation treatment:
   GGA     =    PE    GGA type
   LEXCH   =     8    internal setting for exchange type
   LIBXC   =     F    Libxc                    
   VOSKOWN =     0    Vosko Wilk Nusair interpolation
   LHFCALC =     F    Hartree Fock is set to
   LHFONE  =     F    Hartree Fock one center treatment
   AEXX    =    0.0000 exact exchange contribution

 Linear response parameters
   LEPSILON=     F    determine dielectric tensor
   LRPA    =     F    only Hartree local field effects (RPA)
   LNABLA  =     F    use nabla operator in PAW spheres
   LVEL    =     F    velocity operator in full k-point grid
   CSHIFT  =0.1000    complex shift for real part using Kramers Kronig
   OMEGAMAX=  -1.0    maximum frequency
   DEG_THRESHOLD= 0.2000000E-02 threshold for treating states as degnerate
   RTIME   =   -0.100 relaxation time in fs
  (WPLASMAI=    0.000 imaginary part of plasma frequency in eV, 0.658/RTIME)
   DFIELD  = 0.0000000 0.0000000 0.0000000 field for delta impulse in time

  Optional k-point grid parameters
   LKPOINTS_OPT  =     F    use optional k-point grid
   KPOINTS_OPT_MODE=     1    mode for optional k-point grid

 Orbital magnetization related:
   ORBITALMAG=     F  switch on orbital magnetization
   LCHIMAG   =     F  perturbation theory with respect to B field
   DQ        =  0.001000  dq finite difference perturbation B field
   LLRAUG    =     F  two centre corrections for induced B field
   LBONE     =     F  B-component reconstruction in AE one-centre
   LVGVCALC  =     T  calculate vGv susceptibility
   LVGVAPPL  =     F  apply vGv susceptibility instead of pGv for G=0

 Random number generation:
   RANDOM_GENERATOR = DEFAULT
   PCG_SEED         = not used


--------------------------------------------------------------------------------------------------------


 conjugate gradient relaxation of ions
 charge density and potential will be updated during run
 spin polarized calculation
 Conjugate gradient for all bands (Freysoldt, et al. PRB 79, 241103 (2009))
 preconditioned conjugated gradient                                        
 perform sub-space diagonalisation
    before iterative eigenvector-optimisation
 modified Broyden-mixing scheme, WC =      100.0
 initial mixing is a Kerker type mixing with AMIX =  0.4000 and BMIX =      1.0000
 Hartree-type preconditioning will be used
 using additional bands          176
 real space projection scheme for non local part
 use partial core corrections
 no Harris-corrections to forces 
 use gradient corrections 
 use of overlap-Matrix (Vanderbilt PP)
 Gauss-broadening in eV      SIGMA  =   0.05


--------------------------------------------------------------------------------------------------------


  energy-cutoff  :      520.00
  volume of cell :     1723.38
      direct lattice vectors                 reciprocal lattice vectors
     9.962489075 -0.000069663 -0.000154526     0.100376522  0.000000553 -0.000000819
    -0.000097698 17.717656860 -0.000226836     0.000000395  0.056440872 -0.000000631
     0.000079674  0.000109170  9.763519320     0.000001589  0.000001311  0.102422084

  length of vectors
     9.962489076 17.717656862  9.763519321     0.100376522  0.056440872  0.102422084



 old parameters found on file WAVECAR:
  energy-cutoff  :      520.00
  volume of cell :     1723.38
      direct lattice vectors                 reciprocal lattice vectors
     9.962489075 -0.000069663 -0.000154526     0.100376522  0.000000553 -0.000000819
    -0.000097698 17.717656860 -0.000226836     0.000000395  0.056440872 -0.000000631
     0.000079674  0.000109170  9.763519320     0.000001589  0.000001311  0.102422084

  length of vectors


 k-points in units of 2pi/SCALE and weight: KPOINTS created by Atomic Simulation Env
   0.00000000  0.00000000  0.00000000       0.111
   0.03345884  0.00000018 -0.00000027       0.222
   0.00000053  0.00000044  0.03414069       0.222
   0.03345937  0.00000062  0.03414042       0.222
  -0.03345831  0.00000025  0.03414097       0.222

 k-points in reciprocal lattice and weights: KPOINTS created by Atomic Simulation Env
   0.00000000  0.00000000  0.00000000       0.111
   0.33333333  0.00000000  0.00000000       0.222
   0.00000000  0.00000000  0.33333333       0.222
   0.33333333  0.00000000  0.33333333       0.222
  -0.33333333  0.00000000  0.33333333       0.222

 position of ions in fractional coordinates (direct lattice) 
   0.27403349  0.08179177  0.47943492
   0.22375722  0.24688068  0.22905498
   0.72364334  0.25046980  0.02092744
   0.77433293  0.08239832  0.27063890
   0.27469364  0.08198759  0.97874531
   0.22379047  0.24789700  0.73279549
   0.72733391  0.25034957  0.52147052
   0.77352289  0.08325235  0.77084481
   0.26926069  0.41853194  0.49232869
   0.22679362  0.58548709  0.22693042
   0.72583850  0.58468863  0.02084101
   0.78527952  0.41829677  0.27296684
   0.27366713  0.41835753  0.97420949
   0.22535435  0.58607620  0.73016839
   0.72913091  0.58387481  0.52099729
   0.77894195  0.41734971  0.76714027
   0.27496775  0.74997912  0.47812854
   0.22592015  0.91651184  0.22850586
   0.72545742  0.91682277  0.02086324
   0.77521832  0.75118587  0.27084891
   0.27505522  0.75112555  0.97800994
   0.22517172  0.91652694  0.72845707
   0.72522262  0.91670278  0.52116196
   0.77415640  0.75038115  0.77075151
   0.12180079  0.08259299  0.35695075
   0.38149108  0.25146294  0.11011524
   0.87435640  0.25020035  0.14501757
   0.62009343  0.08277329  0.39147015
   0.44485601  0.08307586  0.07580638
   0.05479108  0.24772326  0.32358043
   0.55194745  0.25158673  0.42558251
   0.94560987  0.08223286  0.17223480
   0.17003397  0.01494845  0.12886340
   0.32503874  0.31604613  0.38822907
   0.83257093  0.17775465  0.37021537
   0.66850085  0.15093897  0.11996725
   0.83224659  0.31254130  0.37920338
   0.66903182  0.01541190  0.11993119
   0.16998209  0.15014553  0.12909457
   0.33008406  0.18111754  0.38145945
   0.12146187  0.08247342  0.85773132
   0.37779115  0.24741839  0.61261353
   0.87976932  0.24863100  0.64389317
   0.62063703  0.08287471  0.89184598
   0.44488903  0.08301107  0.57589392
   0.05421373  0.24897336  0.82901424
   0.55325056  0.24830347  0.92112277
   0.94456036  0.08266790  0.67452333
   0.16877123  0.01517270  0.62907375
   0.32901851  0.31742612  0.88077311
   0.82943897  0.18173621  0.87174870
   0.66899988  0.15090673  0.61941754
   0.83122987  0.31760357  0.87039291
   0.66911727  0.01545935  0.62002280
   0.16839557  0.15052762  0.63021533
   0.32769821  0.18226358  0.88336650
   0.12678372  0.41781398  0.35960556
   0.38059534  0.58491457  0.10599679
   0.87714473  0.58486513  0.14517809
   0.62238068  0.41854250  0.39555003
   0.44927350  0.42153551  0.05819603
   0.05783962  0.58598584  0.32360024
   0.55631619  0.58451266  0.42561116
   0.95576295  0.41568375  0.16861615
   0.18274151  0.34975361  0.13477095
   0.32990220  0.64929371  0.37903295
   0.83506925  0.52186163  0.37923909
   0.67027163  0.48648896  0.10772246
   0.83554287  0.65659511  0.37082215
   0.66123700  0.34874777  0.11051066
   0.17901880  0.48455596  0.13156323
   0.33701890  0.51283137  0.37963055
   0.11616788  0.41718262  0.86137165
   0.37688094  0.58260953  0.60714463
   0.88122651  0.58524375  0.64347246
   0.62368022  0.41695385  0.87915683
   0.44606230  0.41581180  0.57823972
   0.05609995  0.58516853  0.82800594
   0.55497302  0.58533757  0.91978327
   0.94616715  0.41633164  0.67028684
   0.17014475  0.34894738  0.63552559
   0.33073164  0.65277180  0.87840740
   0.83329460  0.51621962  0.86955819
   0.67062385  0.48531115  0.62200743
   0.83114395  0.65211155  0.87154503
   0.67166713  0.34932007  0.62078457
   0.16888007  0.48454247  0.63431275
   0.32899612  0.51777196  0.87755206
   0.12303814  0.75032084  0.35598038
   0.37892630  0.91692371  0.10688722
   0.87820827  0.91700842  0.14243831
   0.62116780  0.75093169  0.39170399
   0.44518652  0.75099895  0.07560443
   0.05504655  0.91689539  0.32549567
   0.55479499  0.91681398  0.42364178
   0.94607980  0.75185897  0.17202129
   0.17006664  0.68348154  0.12732410
   0.33050249  0.98410107  0.37917644
   0.83096891  0.84933619  0.37077444
   0.66924383  0.81860838  0.12016723
   0.83087903  0.98457956  0.37067922
   0.66893967  0.68314230  0.12049249
   0.17037510  0.81874221  0.12854853
   0.33103151  0.84876764  0.37922179
   0.12188198  0.75111129  0.85676971
   0.37838803  0.91671177  0.60736688
   0.87814006  0.91684434  0.64222396
   0.62151908  0.75076477  0.89217201
   0.44520721  0.74939379  0.57508707
   0.05458603  0.91691061  0.82551632
   0.55506267  0.91681425  0.92296366
   0.94507653  0.75093275  0.67371953
   0.16920060  0.68321173  0.62876616
   0.33094111  0.98446930  0.87864126
   0.83053020  0.84916617  0.87037708
   0.66831976  0.81841176  0.62030891
   0.83035173  0.98456025  0.87038951
   0.67054225  0.68312677  0.62020114
   0.16925868  0.81845900  0.62823478
   0.33084894  0.84928638  0.87855031
   0.09564895  0.08231934  0.20294366
   0.40211858  0.24798724  0.45884122
   0.90274839  0.24741470  0.29876353
   0.59555156  0.08319397  0.04611057
   0.09501933  0.08265715  0.70378718
   0.40387552  0.24998744  0.95454597
   0.90356440  0.24919745  0.79813032
   0.59561534  0.08309301  0.54572495
   0.10255302  0.41699619  0.20461008
   0.40584272  0.58255469  0.45367360
   0.90582775  0.58701948  0.29888086
   0.60249066  0.41881122  0.03282907
   0.09443224  0.41658333  0.70689843
   0.40523217  0.58493252  0.95153388
   0.90542940  0.58468231  0.79757778
   0.59754009  0.41740013  0.54906724
   0.09628348  0.75102474  0.20196935
   0.40435876  0.91648966  0.45330775
   0.90431553  0.91693884  0.29646457
   0.59589233  0.75079950  0.04634863
   0.09555721  0.75104262  0.70282828
   0.40466863  0.91683141  0.95278907
   0.90383084  0.91687274  0.79633896
   0.59614490  0.75032133  0.54582643
   0.45562045  0.38880073  0.26734377

 position of ions in cartesian coordinates  (Angst):
   2.73008586  1.44919171  4.68091125
   2.22917295  4.37415654  2.23629213
   7.20926608  4.43768977  0.20415688
   7.71429685  1.45988077  2.64224975
   2.73670231  1.45271573  9.55593772
   2.22954428  4.39221839  7.15457210
   7.24607322  4.43561396  5.09121827
   7.70626666  1.47506681  7.52601979
   2.68250501  7.41544035  4.80672412
   2.25938989 10.37346839  2.21547170
   7.23110265 10.35926423  0.20323684
   7.82331955  7.41121377  2.66490076
   2.72644254  7.41240239  9.51157604
   2.24509113 10.38396099  7.12884537
   7.26394324 10.34489968  5.08652200
   7.76022105  7.39448851  7.48977376
   2.73932798 13.28790579  4.66800465
   2.25065571 16.23845156  2.23077853
   7.22727376 16.24390302  0.20337858
   7.72305227 13.30922900  2.64414838
   2.74023912 13.30827231  9.54860603
   2.24323926 16.23877374  7.11206201
   7.22497438 16.24183164  5.08805487
   7.71251282 13.29502594  7.52495742
   1.21345940  1.46338471  3.48505801
   3.80058489  4.45531962  1.07499627
   8.71075316  4.43291886  1.41569001
   6.17769714  1.46654831  3.82201178
   4.43187109  1.47188681  0.74004947
   0.54585714  4.38910714  3.15921911
   5.49877979  4.45753543  4.15504069
   9.42063365  1.45692659  1.68145303
   1.69397034  0.26485371  1.25813066
   3.23819493  5.59961656  3.79036007
   8.29449093  3.14937832  3.61443599
   6.65992726  2.67425140  1.17116504
   8.29124728  5.53748296  3.70215999
   6.66523021  0.27302923  1.17084357
   1.69344035  2.66022916  1.26035704
   3.28847155  3.20899709  3.72429460
   1.21012281  1.46132088  8.37443882
   3.76376484  4.38371469  5.98114949
   8.76471929  4.40516781  6.28647109
   6.18315257  1.46839974  8.70744072
   4.43223986  1.47079361  5.62266383
   0.54014541  4.41131137  8.09403167
   5.51180182  4.39941775  8.99325817
   9.41021798  1.46468935  6.58555686
   1.68143013  0.26888160  6.14194415
   3.27788250  5.62412038  8.59932245
   8.26332840  3.21997717  8.51116592
   6.66493861  2.67373461  6.04755747
   8.28115679  5.62722817  8.49789750
   6.66612137  0.27392454  6.05349767
   1.67767458  2.66705384  6.15305935
   3.26474244  3.22935718  8.62467393
   1.26306924  7.40271523  3.51090150
   3.79162819 10.36330070  1.03471022
   8.73849918 10.36239448  1.41718085
   6.20045133  7.41559220  3.86176928
   4.47584580  7.46859653  0.56803301
   0.57619512 10.38232738  3.15933536
   5.54227082 10.35620237  4.15524421
   9.52175077  7.36489393  1.64604508
   1.82053690  6.19681639  1.31573120
   3.28661382 11.50398161  3.70049728
   8.31934755  9.24614846  3.70246077
   6.67753481  8.61940959  1.05153637
   8.32405207 11.63330918  3.62025114
   6.58754110  6.17895925  1.07879165
   1.78343603  8.58519817  1.28438254
   3.35752723  9.08618820  3.70636182
   1.15734908  7.39158445  8.40990612
   3.75466370 10.32251574  5.92767789
   8.77920354 10.36915678  6.28228686
   6.21343672  7.38749775  8.58347370
   4.44389620  7.36724279  5.64549142
   0.55890394 10.36790177  8.08411057
   5.52892870 10.37087193  8.98010318
   9.42619263  7.37642840  6.54411783
   1.69508173  6.18258745  6.20486092
   3.29491656 11.56565960  8.57614842
   8.30170724  9.14623893  8.48970228
   6.68108495  8.59859770  6.07276785
   8.28026830 11.55392593  8.50907035
   6.69149183  6.18915403  6.06085911
   1.68246908  8.58501466  6.19298874
   3.27763954  9.17377875  8.56782816
   1.22572115 13.29395752  3.47543207
   3.77496804 16.24572489  1.04332890
   8.74906203 16.24719481  1.39035544
   6.18833530 13.30474958  3.82414310
   4.43509850 13.30591903  0.73792621
   0.54833703 16.24526957  3.17776680
   5.52708324 16.24380309  4.13594101
   9.42524988 13.32113209  1.67921646
   1.69423038 12.10969352  1.24294995
   3.29256154 17.43598345  3.70182217
   8.27846523 15.04822983  3.61974238
   6.66726391 14.50378890  1.17296595
   8.27755663 17.44442532  3.61878200
   6.66424699 12.10364740  1.17617247
   1.69729032 14.50619563  1.25487403
   3.29784506 15.03819219  3.70229558
   1.21424275 13.30801713  8.36489843
   3.76964548 16.24202456  5.92977185
   8.74842238 16.24434236  6.27002240
   6.19187480 13.30184660  8.71047229
   4.43534458 13.27753384  5.61463495
   0.54378897 16.24559392  8.05972810
   5.52978972 16.24386236  9.01107974
   9.41529491 13.30477651  6.57755723
   1.68564244 12.10496794  6.13878943
   3.29697104 17.44256204  8.57835642
   8.27413445 15.04527198  8.49762248
   6.65809778 14.50035992  6.05610907
   8.27234315 17.44413777  8.49771318
   6.68025251 12.10342671  6.05508721
   1.68620781 14.50123247  6.13357063
   3.29606595 15.04743752  8.57749917
   0.95290975  1.45852130  1.98141093
   4.00611434  4.39377484  4.47978673
   8.99362056  4.38357855  2.91678784
   5.93317150  1.47396582  0.45009051
   0.94667704  1.46456127  6.87140630
   4.02365711  4.42926768  9.31960889
   9.00178971  4.41521917  7.79236464
   5.93384667  1.47223145  5.32808520
   1.02165886  7.38821058  1.99760407
   4.04318290 10.32152531  4.42925610
   9.02426551 10.40057928  2.91785595
   6.00226828  7.42031502  0.32033915
   0.94079574  7.38095109  6.90170737
   4.03713970 10.36370930  9.29012409
   9.02033697 10.35922461  7.78689351
   5.95298954  7.39537053  5.36064162
   0.95916579 13.30641402  1.97174643
   4.02836633 16.23807068  4.42560857
   9.00916765 16.24597711  2.89418980
   5.93650112 13.30237149  0.45226337
   0.95197027 13.30678558  6.86189239
   4.03149313 16.24418010  9.30230396
   9.00437879 16.24486065  7.77472319
   5.93905723 13.29395391  5.32892460
   4.53909711  6.88863529  2.61005751



--------------------------------------------------------------------------------------------------------


 k-point   1 :   0.0000 0.0000 0.0000  plane waves:   46385
 k-point   2 :   0.3333 0.0000 0.0000  plane waves:   46400
 k-point   3 :   0.0000 0.0000 0.3333  plane waves:   46458
 k-point   4 :   0.3333 0.0000 0.3333  plane waves:   46379
 k-point   5 :  -0.3333 0.0000 0.3333  plane waves:   46380

 maximum and minimum number of plane-waves per node :     11622    11582

 maximum number of plane-waves:     46458
 maximum index in each direction: 
   IXMAX=   18   IYMAX=   32   IZMAX=   18
   IXMIN=  -18   IYMIN=  -32   IZMIN=  -18


 real space projection operators:
  total allocation   :      46439.75 KBytes
  max/ min on nodes  :      11705.12      11538.19


 parallel 3D FFT for wavefunctions:
    minimum data exchange during FFTs selected (reduces bandwidth)
 parallel 3D FFT for charge:
    minimum data exchange during FFTs selected (reduces bandwidth)


 total amount of memory used by VASP MPI-rank0   264821. kBytes
=======================================================================

   base      :      30000. kBytes
   nonlr-proj:      30732. kBytes
   fftplans  :       9535. kBytes
   grid      :      26700. kBytes
   one-center:       1150. kBytes
   wavefun   :     166704. kBytes

     INWAV:  cpu time     31.4949: real time     31.9289
 Broyden mixing: mesh for mixing (old mesh)
   NGX = 37   NGY = 65   NGZ = 37
  (NGX  =160   NGY  =280   NGZ  =160)
  gives a total of  88985 points

 charge density for first step will be calculated from the start-wavefunctions


--------------------------------------------------------------------------------------------------------


 Maximum index for non-local projection operator         1626
 Maximum index for augmentation-charges          752 (set IRDMAX)


--------------------------------------------------------------------------------------------------------


 initial charge from wavefunction
 First call to EWALD:  gamma=   0.148
 Maximum number of real-space cells 3x 2x 3
 Maximum number of reciprocal cells 2x 4x 2

    FEWALD:  cpu time      0.1063: real time      0.1068


--------------------------------------- Ionic step        1  -------------------------------------------




--------------------------------------- Iteration      1(   1)  ---------------------------------------


    POTLOK:  cpu time      0.1169: real time      0.1174
    SETDIJ:  cpu time      0.4374: real time      0.4389
    TRIAL :  cpu time      7.4231: real time      7.4612
    CORREC:  cpu time     13.2000: real time     13.2638
    CHARGE:  cpu time      0.2568: real time      0.2587
    --------------------------------------------
      LOOP:  cpu time     21.4681: real time     21.5960

 eigenvalue-minimisations  :     0
 total energy-change (2. order) :-0.1020016E+04  (-0.6327761E-05)
 number of electron    1039.0000139 magnetization     119.0000058
 augmentation part      257.3674739 magnetization      80.8996029

 Free energy of the ion-electron system (eV)
  ---------------------------------------------------
  alpha Z        PSCENC =      2952.23721804
  Ewald energy   TEWEN  =    -62494.17377127
  -Hartree energ DENC   =    -37467.02319133
  -exchange      EXHF   =         0.00000000
  -V(xc)+E(xc)   XCENC  =      4604.15511310
  PAW double counting   =    159667.03465902  -161738.83736082
  entropy T*S    EENTRO =        -0.00000000
  eigenvalues    EBANDS =    -12018.84964098
  atomic energy  EATOM  =    105475.44126576
  ---------------------------------------------------
  free energy    TOTEN  =     -1020.01570848 eV

  energy without entropy =    -1020.01570848  energy(sigma->0) =    -1020.01570848


--------------------------------------------------------------------------------------------------------




--------------------------------------- Iteration      1(   2)  ---------------------------------------


    POTLOK:  cpu time      0.1091: real time      0.1097
    SETDIJ:  cpu time      0.4430: real time      0.4446
    TRIAL :  cpu time      7.3703: real time      7.4079
    CORREC:  cpu time     13.1708: real time     13.2367
    CHARGE:  cpu time      0.2569: real time      0.2590
    --------------------------------------------
      LOOP:  cpu time     21.3512: real time     21.4703

 eigenvalue-minimisations  :     0
 total energy-change (2. order) :-0.1436390E-04  (-0.3074347E-06)
 number of electron    1039.0000139 magnetization     119.0000058
 augmentation part      257.3674794 magnetization      80.8996071

 Free energy of the ion-electron system (eV)
  ---------------------------------------------------
  alpha Z        PSCENC =      2952.23721804
  Ewald energy   TEWEN  =    -62494.17377127
  -Hartree energ DENC   =    -37467.02107332
  -exchange      EXHF   =         0.00000000
  -V(xc)+E(xc)   XCENC  =      4604.15509223
  PAW double counting   =    159667.05179592  -161738.85403540
  entropy T*S    EENTRO =        -0.00000000
  eigenvalues    EBANDS =    -12018.85221481
  atomic energy  EATOM  =    105475.44126576
  ---------------------------------------------------
  free energy    TOTEN  =     -1020.01572285 eV

  energy without entropy =    -1020.01572285  energy(sigma->0) =    -1020.01572285


--------------------------------------------------------------------------------------------------------




--------------------------------------- Iteration      1(   3)  ---------------------------------------


    POTLOK:  cpu time      0.1086: real time      0.1092
    SETDIJ:  cpu time      0.4442: real time      0.4457
    TRIAL :  cpu time      7.3668: real time      7.4056
    CORREC:  cpu time      3.2831: real time      3.2995
    CHARGE:  cpu time      0.2567: real time      0.2589
    --------------------------------------------
      LOOP:  cpu time     11.4601: real time     11.5194

 eigenvalue-minimisations  :     0
 total energy-change (2. order) :-0.9403171E-05  (-0.1512812E-05)
 number of electron    1039.0000139 magnetization     119.0000058
 augmentation part      257.3674844 magnetization      80.8996040

 Free energy of the ion-electron system (eV)
  ---------------------------------------------------
  alpha Z        PSCENC =      2952.23721804
  Ewald energy   TEWEN  =    -62494.17377127
  -Hartree energ DENC   =    -37467.02117458
  -exchange      EXHF   =         0.00000000
  -V(xc)+E(xc)   XCENC  =      4604.15521135
  PAW double counting   =    159667.13563134  -161738.93827176
  entropy T*S    EENTRO =        -0.00000000
  eigenvalues    EBANDS =    -12018.85184112
  atomic energy  EATOM  =    105475.44126576
  ---------------------------------------------------
  free energy    TOTEN  =     -1020.01573225 eV

  energy without entropy =    -1020.01573225  energy(sigma->0) =    -1020.01573225


--------------------------------------------------------------------------------------------------------




--------------------------------------- Iteration      1(   4)  ---------------------------------------


    POTLOK:  cpu time      0.1081: real time      0.1086
    SETDIJ:  cpu time      0.4443: real time      0.4459
    TRIAL :  cpu time      7.3530: real time      7.3908
    CORREC:  cpu time      3.2906: real time      3.3087
    CHARGE:  cpu time      0.2537: real time      0.2567
    --------------------------------------------
      LOOP:  cpu time     11.4505: real time     11.5115

 eigenvalue-minimisations  :     0
 total energy-change (2. order) :-0.1492284E-05  (-0.7374742E-06)
 number of electron    1039.0000139 magnetization     119.0000058
 augmentation part      257.3674751 magnetization      80.8996024

 Free energy of the ion-electron system (eV)
  ---------------------------------------------------
  alpha Z        PSCENC =      2952.23721804
  Ewald energy   TEWEN  =    -62494.17377127
  -Hartree energ DENC   =    -37467.02125781
  -exchange      EXHF   =         0.00000000
  -V(xc)+E(xc)   XCENC  =      4604.15525164
  PAW double counting   =    159667.19469224  -161738.99745765
  entropy T*S    EENTRO =        -0.00000000
  eigenvalues    EBANDS =    -12018.85167468
  atomic energy  EATOM  =    105475.44126576
  ---------------------------------------------------
  free energy    TOTEN  =     -1020.01573374 eV

  energy without entropy =    -1020.01573374  energy(sigma->0) =    -1020.01573374


--------------------------------------------------------------------------------------------------------




--------------------------------------- Iteration      1(   5)  ---------------------------------------


    POTLOK:  cpu time      0.1085: real time      0.1090
    SETDIJ:  cpu time      0.4431: real time      0.4446
    TRIAL :  cpu time      7.3547: real time      7.3931
    CORREC:  cpu time      3.3009: real time      3.3171
    CHARGE:  cpu time      0.2540: real time      0.2563
    --------------------------------------------
      LOOP:  cpu time     11.4619: real time     11.5209

 eigenvalue-minimisations  :     0
 total energy-change (2. order) :-0.7526251E-06  (-0.3985375E-06)
 number of electron    1039.0000139 magnetization     119.0000058
 augmentation part      257.3674721 magnetization      80.8996044

 Free energy of the ion-electron system (eV)
  ---------------------------------------------------
  alpha Z        PSCENC =      2952.23721804
  Ewald energy   TEWEN  =    -62494.17377127
  -Hartree energ DENC   =    -37467.01988748
  -exchange      EXHF   =         0.00000000
  -V(xc)+E(xc)   XCENC  =      4604.15520887
  PAW double counting   =    159667.23068909  -161739.03308517
  entropy T*S    EENTRO =        -0.00000000
  eigenvalues    EBANDS =    -12018.85337234
  atomic energy  EATOM  =    105475.44126576
  ---------------------------------------------------
  free energy    TOTEN  =     -1020.01573449 eV

  energy without entropy =    -1020.01573449  energy(sigma->0) =    -1020.01573449


--------------------------------------------------------------------------------------------------------




--------------------------------------- Iteration      1(   6)  ---------------------------------------


    POTLOK:  cpu time      0.1095: real time      0.1107
    SETDIJ:  cpu time      0.4435: real time      0.4450
    TRIAL :  cpu time      7.3718: real time      7.4092
    CORREC:  cpu time      3.3026: real time      3.3189
    CHARGE:  cpu time      0.2546: real time      0.2569
    --------------------------------------------
      LOOP:  cpu time     11.4826: real time     11.5415

 eigenvalue-minimisations  :     0
 total energy-change (2. order) :-0.4078611E-06  (-0.2744945E-06)
 number of electron    1039.0000139 magnetization     119.0000058
 augmentation part      257.3674771 magnetization      80.8996043

 Free energy of the ion-electron system (eV)
  ---------------------------------------------------
  alpha Z        PSCENC =      2952.23721804
  Ewald energy   TEWEN  =    -62494.17377127
  -Hartree energ DENC   =    -37467.01978046
  -exchange      EXHF   =         0.00000000
  -V(xc)+E(xc)   XCENC  =      4604.15518359
  PAW double counting   =    159667.24214525  -161739.04448291
  entropy T*S    EENTRO =        -0.00000000
  eigenvalues    EBANDS =    -12018.85351290
  atomic energy  EATOM  =    105475.44126576
  ---------------------------------------------------
  free energy    TOTEN  =     -1020.01573490 eV

  energy without entropy =    -1020.01573490  energy(sigma->0) =    -1020.01573490


--------------------------------------------------------------------------------------------------------




--------------------------------------- Iteration      1(   7)  ---------------------------------------


    POTLOK:  cpu time      0.1073: real time      0.1080
    SETDIJ:  cpu time      0.4438: real time      0.4453
    TRIAL :  cpu time      7.3629: real time      7.4064
    CORREC:  cpu time      3.2975: real time      3.3171
    CHARGE:  cpu time      0.2558: real time      0.2584
    --------------------------------------------
      LOOP:  cpu time     11.4787: real time     11.5478

 eigenvalue-minimisations  :     0
 total energy-change (2. order) :-0.2466550E-06  (-0.1381944E-06)
 number of electron    1039.0000139 magnetization     119.0000058
 augmentation part      257.3674740 magnetization      80.8996028

 Free energy of the ion-electron system (eV)
  ---------------------------------------------------
  alpha Z        PSCENC =      2952.23721804
  Ewald energy   TEWEN  =    -62494.17377127
  -Hartree energ DENC   =    -37467.02078346
  -exchange      EXHF   =         0.00000000
  -V(xc)+E(xc)   XCENC  =      4604.15519206
  PAW double counting   =    159667.23146216  -161739.03408368
  entropy T*S    EENTRO =        -0.00000000
  eigenvalues    EBANDS =    -12018.85223475
  atomic energy  EATOM  =    105475.44126576
  ---------------------------------------------------
  free energy    TOTEN  =     -1020.01573515 eV

  energy without entropy =    -1020.01573515  energy(sigma->0) =    -1020.01573515


--------------------------------------------------------------------------------------------------------




--------------------------------------- Iteration      1(   8)  ---------------------------------------


    POTLOK:  cpu time      0.1070: real time      0.1077
    SETDIJ:  cpu time      0.4440: real time      0.4459
    TRIAL :  cpu time      7.3621: real time      7.4030
    CORREC:  cpu time      5.5773: real time      5.6039
    EDDIAG:  cpu time      2.2640: real time      2.2754
    CHARGE:  cpu time      0.2563: real time      0.2585
    --------------------------------------------
      LOOP:  cpu time     16.0114: real time     16.0952

 eigenvalue-minimisations  :     0
 total energy-change (2. order) :-0.1371518E-06  (-0.1244820E-06)
 number of electron    1039.0000139 magnetization     119.0000058
 augmentation part      257.3674726 magnetization      80.8996026

 Free energy of the ion-electron system (eV)
  ---------------------------------------------------
  alpha Z        PSCENC =      2952.23721804
  Ewald energy   TEWEN  =    -62494.17377127
  -Hartree energ DENC   =    -37467.02034708
  -exchange      EXHF   =         0.00000000
  -V(xc)+E(xc)   XCENC  =      4604.15518014
  PAW double counting   =    159667.20974400  -161739.01229121
  entropy T*S    EENTRO =        -0.00000000
  eigenvalues    EBANDS =    -12018.85273366
  atomic energy  EATOM  =    105475.44126576
  ---------------------------------------------------
  free energy    TOTEN  =     -1020.01573529 eV

  energy without entropy =    -1020.01573529  energy(sigma->0) =    -1020.01573529


--------------------------------------------------------------------------------------------------------


  average scaling for gradient   0.8168


 average (electrostatic) potential at core
  the test charge radii are     0.9500  0.7215  0.9587  0.9254
  (the norm of the test charge is              1.0000)
       1 -83.5189       2 -83.5858       3 -83.4414       4 -83.4275       5 -83.5009
       6 -83.5543       7 -83.4268       8 -83.4874       9 -83.5465      10 -83.4912
      11 -83.3735      12 -79.2024      13 -83.5972      14 -83.5067      15 -83.3634
      16 -83.4300      17 -83.5321      18 -83.4971      19 -83.4689      20 -83.4045
      21 -83.4748      22 -83.5053      23 -83.4761      24 -83.4691      25 -71.6308
      26 -71.7582      27 -71.5383      28 -71.5604      29 -71.6675      30 -71.6928
      31 -71.7486      32 -71.6380      33 -72.0511      34 -72.2268      35 -71.9100
      36 -71.9620      37 -71.6898      38 -71.9988      39 -72.1088      40 -72.1289
      41 -71.6233      42 -71.7209      43 -71.5690      44 -71.5950      45 -71.6620
      46 -71.7073      47 -71.6393      48 -71.6705      49 -72.0608      50 -72.0652
      51 -71.9924      52 -71.9731      53 -71.9618      54 -71.9969      55 -72.0392
      56 -72.0998      57 -71.6537      58 -71.6252      59 -71.4666      60 -71.4372
      61 -71.9272      62 -71.6100      63 -71.6362      64 -71.2167      65 -72.0361
      66 -72.0706      67 -71.6577      68 -71.7969      69 -71.8709      70 -71.8319
      71 -72.0235      72 -72.0748      73 -71.8518      74 -71.6369      75 -71.5381
      76 -71.7087      77 -71.7248      78 -71.6625      79 -71.5792      80 -71.8477
      81 -72.2053      82 -72.0481      83 -71.9249      84 -71.9772      85 -71.9870
      86 -71.9801      87 -72.2541      88 -72.0575      89 -71.6199      90 -71.6055
      91 -71.5849      92 -71.5418      93 -71.6426      94 -71.6566      95 -71.6578
      96 -71.6118      97 -72.0339      98 -72.0437      99 -71.9994     100 -71.9824
     101 -72.0003     102 -71.9579     103 -72.0254     104 -72.0249     105 -71.6014
     106 -71.6153     107 -71.5918     108 -71.5761     109 -71.6636     110 -71.6607
     111 -71.6522     112 -71.6512     113 -72.0610     114 -72.0394     115 -71.9878
     116 -71.9794     117 -71.9922     118 -71.9552     119 -72.0286     120 -72.0358
     121 -86.7757     122 -86.8754     123 -86.6195     124 -86.7267     125 -86.7641
     126 -86.8246     127 -86.7178     128 -86.7207     129 -86.5984     130 -86.7799
     131 -86.5673     132 -86.7485     133 -86.9292     134 -86.7533     135 -86.6876
     136 -86.7202     137 -86.7415     138 -86.7518     139 -86.7310     140 -86.7102
     141 -86.7514     142 -86.7503     143 -86.7296     144 -86.7098     145 -44.5157



 E-fermi :   3.6421     XC(G=0): -10.0279     alpha+bet :-10.1256

 Fermi energy:         2.6544235651

 spin component 1

 k-point     1 :       0.0000    0.0000    0.0000
  band No.  band energies     occupation 
      1     -55.6171      1.00000
      2     -55.6145      1.00000
      3     -55.5712      1.00000
      4     -55.5511      1.00000
      5     -55.5371      1.00000
      6     -55.5336      1.00000
      7     -55.5212      1.00000
      8     -55.5205      1.00000
      9     -55.5196      1.00000
     10     -55.5191      1.00000
     11     -55.5119      1.00000
     12     -55.5009      1.00000
     13     -55.4926      1.00000
     14     -55.4904      1.00000
     15     -55.4834      1.00000
     16     -55.4798      1.00000
     17     -55.4664      1.00000
     18     -55.4585      1.00000
     19     -55.4554      1.00000
     20     -55.4533      1.00000
     21     -55.4403      1.00000
     22     -55.4383      1.00000
     23     -55.4375      1.00000
     24     -55.4203      1.00000
     25     -55.4178      1.00000
     26     -55.4158      1.00000
     27     -55.4089      1.00000
     28     -55.4007      1.00000
     29     -55.3992      1.00000
     30     -55.3931      1.00000
     31     -55.3870      1.00000
     32     -55.3790      1.00000
     33     -55.3769      1.00000
     34     -55.3687      1.00000
     35     -55.3684      1.00000
     36     -55.3683      1.00000
     37     -55.3634      1.00000
     38     -55.3553      1.00000
     39     -55.3544      1.00000
     40     -55.3506      1.00000
     41     -55.3469      1.00000
     42     -55.3465      1.00000
     43     -55.3176      1.00000
     44     -55.3175      1.00000
     45     -55.3141      1.00000
     46     -55.3131      1.00000
     47     -55.3052      1.00000
     48     -55.3012      1.00000
     49     -55.3011      1.00000
     50     -55.2970      1.00000
     51     -55.2962      1.00000
     52     -55.2955      1.00000
     53     -55.2894      1.00000
     54     -55.2844      1.00000
     55     -55.2744      1.00000
     56     -55.2739      1.00000
     57     -55.2734      1.00000
     58     -55.2704      1.00000
     59     -55.2690      1.00000
     60     -55.2689      1.00000
     61     -55.2567      1.00000
     62     -55.2428      1.00000
     63     -55.2410      1.00000
     64     -55.2361      1.00000
     65     -55.2252      1.00000
     66     -55.2187      1.00000
     67     -55.2180      1.00000
     68     -55.1870      1.00000
     69     -55.1796      1.00000
     70     -51.8484      1.00000
     71     -50.4068      1.00000
     72     -50.1150      1.00000
     73     -18.9788      1.00000
     74     -18.7938      1.00000
     75     -18.7473      1.00000
     76     -18.6489      1.00000
     77     -18.5448      1.00000
     78     -18.4782      1.00000
     79     -18.4359      1.00000
     80     -18.3757      1.00000
     81     -18.3700      1.00000
     82     -18.3293      1.00000
     83     -18.3122      1.00000
     84     -18.3077      1.00000
     85     -18.2957      1.00000
     86     -18.2899      1.00000
     87     -18.2851      1.00000
     88     -18.2720      1.00000
     89     -18.2606      1.00000
     90     -18.2316      1.00000
     91     -18.2253      1.00000
     92     -18.2166      1.00000
     93     -18.1902      1.00000
     94     -18.1834      1.00000
     95     -18.1619      1.00000
     96     -18.1420      1.00000
     97     -18.1298      1.00000
     98     -18.1237      1.00000
     99     -18.0729      1.00000
    100     -16.3246      1.00000
    101     -16.2427      1.00000
    102     -16.2040      1.00000
    103     -16.2003      1.00000
    104     -16.1686      1.00000
    105     -16.1630      1.00000
    106     -16.1416      1.00000
    107     -16.1116      1.00000
    108     -16.0811      1.00000
    109     -16.0730      1.00000
    110     -16.0546      1.00000
    111     -16.0450      1.00000
    112     -16.0342      1.00000
    113     -16.0300      1.00000
    114     -16.0233      1.00000
    115     -16.0224      1.00000
    116     -16.0097      1.00000
    117     -16.0045      1.00000
    118     -15.9953      1.00000
    119     -15.9936      1.00000
    120     -15.9866      1.00000
    121     -15.9752      1.00000
    122     -15.9579      1.00000
    123     -15.9387      1.00000
    124     -15.9125      1.00000
    125     -15.9051      1.00000
    126     -15.8980      1.00000
    127     -15.8897      1.00000
    128     -15.8682      1.00000
    129     -15.8559      1.00000
    130     -15.8446      1.00000
    131     -15.8411      1.00000
    132     -15.8181      1.00000
    133     -15.8093      1.00000
    134     -15.7942      1.00000
    135     -15.7919      1.00000
    136     -15.7761      1.00000
    137     -15.7721      1.00000
    138     -15.7574      1.00000
    139     -15.7476      1.00000
    140     -15.7411      1.00000
    141     -15.7383      1.00000
    142     -15.7287      1.00000
    143     -15.7179      1.00000
    144     -15.7145      1.00000
    145     -15.7102      1.00000
    146     -15.7033      1.00000
    147     -15.6999      1.00000
    148     -15.6910      1.00000
    149     -15.6887      1.00000
    150     -15.6749      1.00000
    151     -15.6621      1.00000
    152     -15.6553      1.00000
    153     -15.6533      1.00000
    154     -15.6424      1.00000
    155     -15.6408      1.00000
    156     -15.6292      1.00000
    157     -15.6225      1.00000
    158     -15.6159      1.00000
    159     -15.6116      1.00000
    160     -15.6048      1.00000
    161     -15.6017      1.00000
    162     -15.5956      1.00000
    163     -15.5909      1.00000
    164     -15.5846      1.00000
    165     -15.5710      1.00000
    166     -15.5637      1.00000
    167     -15.5326      1.00000
    168     -15.5108      1.00000
    169     -15.4985      1.00000
    170     -15.4668      1.00000
    171     -15.4403      1.00000
    172      -7.1362      1.00000
    173      -6.9973      1.00000
    174      -6.9850      1.00000
    175      -6.9732      1.00000
    176      -6.9617      1.00000
    177      -6.9423      1.00000
    178      -6.9024      1.00000
    179      -6.9008      1.00000
    180      -6.8881      1.00000
    181      -6.8714      1.00000
    182      -6.8376      1.00000
    183      -6.7319      1.00000
    184      -6.4152      1.00000
    185      -6.3512      1.00000
    186      -6.3223      1.00000
    187      -6.2037      1.00000
    188      -6.2029      1.00000
    189      -6.1825      1.00000
    190      -6.1533      1.00000
    191      -6.1417      1.00000
    192      -6.0998      1.00000
    193      -6.0927      1.00000
    194      -6.0837      1.00000
    195      -6.0692      1.00000
    196      -6.0573      1.00000
    197      -6.0473      1.00000
    198      -6.0367      1.00000
    199      -6.0149      1.00000
    200      -6.0075      1.00000
    201      -5.9837      1.00000
    202      -5.9598      1.00000
    203      -5.9454      1.00000
    204      -5.9027      1.00000
    205      -5.8881      1.00000
    206      -5.8824      1.00000
    207      -5.8576      1.00000
    208      -5.8264      1.00000
    209      -5.8220      1.00000
    210      -5.8152      1.00000
    211      -5.8074      1.00000
    212      -5.7530      1.00000
    213      -5.7047      1.00000
    214      -5.6551      1.00000
    215      -5.6188      1.00000
    216      -5.6112      1.00000
    217      -5.5468      1.00000
    218      -5.5316      1.00000
    219      -5.4872      1.00000
    220      -5.4643      1.00000
    221      -5.4292      1.00000
    222      -5.4135      1.00000
    223      -5.4048      1.00000
    224      -5.3978      1.00000
    225      -5.3164      1.00000
    226      -5.2925      1.00000
    227      -5.2757      1.00000
    228      -5.2672      1.00000
    229      -5.2627      1.00000
    230      -5.2548      1.00000
    231      -5.2374      1.00000
    232      -5.2226      1.00000
    233      -5.2105      1.00000
    234      -5.1990      1.00000
    235      -5.1946      1.00000
    236      -5.1804      1.00000
    237      -5.1769      1.00000
    238      -5.1736      1.00000
    239      -5.1585      1.00000
    240      -5.1550      1.00000
    241      -5.1438      1.00000
    242      -5.1368      1.00000
    243      -5.1251      1.00000
    244      -5.1165      1.00000
    245      -5.1151      1.00000
    246      -5.1053      1.00000
    247      -5.1010      1.00000
    248      -5.0912      1.00000
    249      -5.0849      1.00000
    250      -5.0783      1.00000
    251      -5.0756      1.00000
    252      -5.0735      1.00000
    253      -5.0638      1.00000
    254      -5.0610      1.00000
    255      -5.0572      1.00000
    256      -5.0494      1.00000
    257      -5.0438      1.00000
    258      -5.0411      1.00000
    259      -5.0344      1.00000
    260      -5.0289      1.00000
    261      -5.0229      1.00000
    262      -5.0214      1.00000
    263      -5.0168      1.00000
    264      -5.0141      1.00000
    265      -5.0108      1.00000
    266      -5.0022      1.00000
    267      -4.9910      1.00000
    268      -4.9853      1.00000
    269      -4.9762      1.00000
    270      -4.9740      1.00000
    271      -4.9697      1.00000
    272      -4.9623      1.00000
    273      -4.9611      1.00000
    274      -4.9525      1.00000
    275      -4.9511      1.00000
    276      -4.9498      1.00000
    277      -4.9419      1.00000
    278      -4.9335      1.00000
    279      -4.9254      1.00000
    280      -4.9198      1.00000
    281      -4.9164      1.00000
    282      -4.9089      1.00000
    283      -4.9013      1.00000
    284      -4.8943      1.00000
    285      -4.8823      1.00000
    286      -4.8725      1.00000
    287      -4.8679      1.00000
    288      -4.8657      1.00000
    289      -4.8584      1.00000
    290      -4.8482      1.00000
    291      -4.8341      1.00000
    292      -4.8167      1.00000
    293      -4.8048      1.00000
    294      -4.8029      1.00000
    295      -4.7911      1.00000
    296      -4.7837      1.00000
    297      -4.7760      1.00000
    298      -4.7277      1.00000
    299      -4.6894      1.00000
    300      -4.6822      1.00000
    301      -4.5979      1.00000
    302      -4.4928      1.00000
    303      -4.4296      1.00000
    304      -4.3339      1.00000
    305      -4.3081      1.00000
    306      -4.2964      1.00000
    307      -4.2750      1.00000
    308      -4.1186      1.00000
    309      -4.0084      1.00000
    310      -3.9813      1.00000
    311      -3.9609      1.00000
    312      -3.9411      1.00000
    313      -3.9045      1.00000
    314      -3.8595      1.00000
    315      -3.5885      1.00000
    316      -3.5579      1.00000
    317      -3.5436      1.00000
    318      -3.4764      1.00000
    319      -3.4397      1.00000
    320      -3.4260      1.00000
    321      -3.4171      1.00000
    322      -3.3753      1.00000
    323      -3.3635      1.00000
    324      -3.3139      1.00000
    325      -3.2582      1.00000
    326      -3.2484      1.00000
    327      -3.2215      1.00000
    328      -3.1757      1.00000
    329      -3.1672      1.00000
    330      -3.0383      1.00000
    331      -3.0039      1.00000
    332      -3.0005      1.00000
    333      -2.9873      1.00000
    334      -2.9401      1.00000
    335      -2.9119      1.00000
    336      -2.9071      1.00000
    337      -2.8815      1.00000
    338      -2.8768      1.00000
    339      -2.8723      1.00000
    340      -2.8431      1.00000
    341      -2.8108      1.00000
    342      -2.8049      1.00000
    343      -2.7758      1.00000
    344      -2.7756      1.00000
    345      -2.7676      1.00000
    346      -2.7539      1.00000
    347      -2.7407      1.00000
    348      -2.7344      1.00000
    349      -2.7113      1.00000
    350      -2.6950      1.00000
    351      -2.6889      1.00000
    352      -2.6748      1.00000
    353      -2.6717      1.00000
    354      -2.6609      1.00000
    355      -2.6504      1.00000
    356      -2.6296      1.00000
    357      -2.6047      1.00000
    358      -2.5951      1.00000
    359      -2.5820      1.00000
    360      -2.5312      1.00000
    361      -2.4959      1.00000
    362      -2.4891      1.00000
    363      -2.4769      1.00000
    364      -2.4625      1.00000
    365      -2.4156      1.00000
    366      -2.3974      1.00000
    367      -2.3940      1.00000
    368      -2.3777      1.00000
    369      -2.3664      1.00000
    370      -2.3588      1.00000
    371      -2.3381      1.00000
    372      -2.3151      1.00000
    373      -2.3082      1.00000
    374      -2.2632      1.00000
    375      -2.2538      1.00000
    376      -2.2349      1.00000
    377      -2.2298      1.00000
    378      -2.2267      1.00000
    379      -2.2057      1.00000
    380      -2.1169      1.00000
    381      -1.9349      1.00000
    382      -1.8367      1.00000
    383      -1.7159      1.00000
    384      -1.5468      1.00000
    385      -1.5456      1.00000
    386      -1.4695      1.00000
    387      -1.4359      1.00000
    388      -1.4214      1.00000
    389      -1.3913      1.00000
    390      -1.3640      1.00000
    391      -1.3432      1.00000
    392      -1.2619      1.00000
    393      -1.2534      1.00000
    394      -1.1677      1.00000
    395      -1.1439      1.00000
    396      -1.1197      1.00000
    397      -1.1000      1.00000
    398      -1.0937      1.00000
    399      -1.0448      1.00000
    400      -1.0386      1.00000
    401      -1.0286      1.00000
    402      -0.9878      1.00000
    403      -0.9778      1.00000
    404      -0.9273      1.00000
    405      -0.9071      1.00000
    406      -0.8983      1.00000
    407      -0.8709      1.00000
    408      -0.8654      1.00000
    409      -0.8435      1.00000
    410      -0.8214      1.00000
    411      -0.8086      1.00000
    412      -0.7930      1.00000
    413      -0.7887      1.00000
    414      -0.7808      1.00000
    415      -0.7109      1.00000
    416      -0.6535      1.00000
    417      -0.6350      1.00000
    418      -0.5919      1.00000
    419      -0.5815      1.00000
    420      -0.5676      1.00000
    421      -0.5383      1.00000
    422      -0.5233      1.00000
    423      -0.5129      1.00000
    424      -0.4958      1.00000
    425      -0.4901      1.00000
    426      -0.4695      1.00000
    427      -0.4574      1.00000
    428      -0.4397      1.00000
    429      -0.4012      1.00000
    430      -0.3479      1.00000
    431      -0.3443      1.00000
    432      -0.3342      1.00000
    433      -0.3058      1.00000
    434      -0.2863      1.00000
    435      -0.2667      1.00000
    436      -0.2571      1.00000
    437      -0.2445      1.00000
    438      -0.2168      1.00000
    439      -0.2121      1.00000
    440      -0.2077      1.00000
    441      -0.1993      1.00000
    442      -0.1778      1.00000
    443      -0.1757      1.00000
    444      -0.1628      1.00000
    445      -0.1533      1.00000
    446      -0.1431      1.00000
    447      -0.1361      1.00000
    448      -0.1306      1.00000
    449      -0.1094      1.00000
    450      -0.0894      1.00000
    451      -0.0404      1.00000
    452      -0.0249      1.00000
    453       0.0008      1.00000
    454       0.0212      1.00000
    455       0.0314      1.00000
    456       0.0391      1.00000
    457       0.0459      1.00000
    458       0.0486      1.00000
    459       0.0900      1.00000
    460       0.0945      1.00000
    461       0.1032      1.00000
    462       0.1756      1.00000
    463       0.1918      1.00000
    464       0.2121      1.00000
    465       0.2215      1.00000
    466       0.2233      1.00000
    467       0.2352      1.00000
    468       0.2453      1.00000
    469       0.2636      1.00000
    470       0.2666      1.00000
    471       0.2767      1.00000
    472       0.3139      1.00000
    473       0.3527      1.00000
    474       0.3606      1.00000
    475       0.4042      1.00000
    476       0.4328      1.00000
    477       0.4437      1.00000
    478       0.4527      1.00000
    479       0.4649      1.00000
    480       0.4736      1.00000
    481       0.4895      1.00000
    482       0.5065      1.00000
    483       0.5222      1.00000
    484       0.5468      1.00000
    485       0.5782      1.00000
    486       0.5866      1.00000
    487       0.5948      1.00000
    488       0.6868      1.00000
    489       0.7039      1.00000
    490       0.7283      1.00000
    491       0.7638      1.00000
    492       0.7948      1.00000
    493       0.8126      1.00000
    494       0.8284      1.00000
    495       0.8479      1.00000
    496       0.8731      1.00000
    497       0.8813      1.00000
    498       0.8986      1.00000
    499       0.9031      1.00000
    500       0.9105      1.00000
    501       0.9285      1.00000
    502       0.9335      1.00000
    503       0.9423      1.00000
    504       0.9676      1.00000
    505       0.9751      1.00000
    506       0.9802      1.00000
    507       0.9959      1.00000
    508       1.0251      1.00000
    509       1.0390      1.00000
    510       1.0860      1.00000
    511       1.1102      1.00000
    512       1.1183      1.00000
    513       1.1370      1.00000
    514       1.1447      1.00000
    515       1.1656      1.00000
    516       1.1747      1.00000
    517       1.1990      1.00000
    518       1.2065      1.00000
    519       1.2183      1.00000
    520       1.2377      1.00000
    521       1.2731      1.00000
    522       1.3153      1.00000
    523       1.3543      1.00000
    524       1.3645      1.00000
    525       1.3666      1.00000
    526       1.3729      1.00000
    527       1.4131      1.00000
    528       1.4245      1.00000
    529       1.4437      1.00000
    530       1.4640      1.00000
    531       1.4806      1.00000
    532       1.4997      1.00000
    533       1.5038      1.00000
    534       1.5165      1.00000
    535       1.5203      1.00000
    536       1.5260      1.00000
    537       1.5392      1.00000
    538       1.5518      1.00000
    539       1.5593      1.00000
    540       1.5654      1.00000
    541       1.5785      1.00000
    542       1.5871      1.00000
    543       1.5898      1.00000
    544       1.6014      1.00000
    545       1.6152      1.00000
    546       1.6180      1.00000
    547       1.6274      1.00000
    548       1.6340      1.00000
    549       1.6439      1.00000
    550       1.6475      1.00000
    551       1.6645      1.00000
    552       1.6739      1.00000
    553       1.6963      1.00000
    554       1.7073      1.00000
    555       1.7269      1.00000
    556       1.7376      1.00000
    557       1.7575      1.00000
    558       1.7674      1.00000
    559       1.7831      1.00000
    560       1.7910      1.00000
    561       1.8144      1.00000
    562       1.8366      1.00000
    563       1.8373      1.00000
    564       1.8569      1.00000
    565       1.8604      1.00000
    566       1.9118      1.00000
    567       1.9259      1.00000
    568       1.9525      1.00000
    569       1.9617      1.00000
    570       1.9674      1.00000
    571       2.0022      1.00000
    572       2.0084      1.00000
    573       2.0296      1.00000
    574       2.0508      1.00000
    575       2.0578      1.00000
    576       2.0888      1.00000
    577       2.1121      1.00000
    578       2.2281      1.00000
    579       2.3876      1.00000
    580       7.4218      0.00000
    581       8.2707      0.00000
    582       8.3045      0.00000
    583       9.3875      0.00000
    584       9.4302      0.00000
    585       9.5296      0.00000
    586       9.8522      0.00000
    587       9.8972      0.00000
    588       9.9317      0.00000
    589       9.9733      0.00000
    590      10.0002      0.00000
    591      10.0178      0.00000
    592      10.0271      0.00000
    593      10.0499      0.00000
    594      10.0589      0.00000
    595      10.0705      0.00000
    596      10.2647      0.00000
    597      10.2889      0.00000
    598      10.2979      0.00000
    599      10.3264      0.00000
    600      10.6070      0.00000
    601      10.6408      0.00000
    602      10.6662      0.00000
    603      10.6736      0.00000
    604      10.6950      0.00000
    605      10.7192      0.00000
    606      10.7462      0.00000
    607      10.7661      0.00000
    608      10.7712      0.00000
    609      10.7872      0.00000
    610      10.8302      0.00000
    611      10.8378      0.00000
    612      10.8567      0.00000
    613      10.8793      0.00000
    614      10.9064      0.00000
    615      10.9702      0.00000
    616      10.9922      0.00000
    617      11.0396      0.00000
    618      11.0657      0.00000
    619      11.0716      0.00000
    620      11.0778      0.00000
    621      11.0983      0.00000
    622      11.1093      0.00000
    623      11.1287      0.00000
    624      11.1511      0.00000
    625      11.1934      0.00000
    626      11.2153      0.00000
    627      11.2354      0.00000
    628      11.2571      0.00000
    629      11.2706      0.00000
    630      11.2917      0.00000
    631      11.3117      0.00000
    632      11.3635      0.00000
    633      11.4216      0.00000
    634      11.4384      0.00000
    635      11.4585      0.00000
    636      11.4882      0.00000
    637      11.4936      0.00000
    638      11.5032      0.00000
    639      11.5143      0.00000
    640      11.5270      0.00000
    641      11.5673      0.00000
    642      11.5757      0.00000
    643      11.5944      0.00000
    644      11.6084      0.00000
    645      11.6285      0.00000
    646      11.6849      0.00000
    647      11.7388      0.00000
    648      11.7772      0.00000
    649      11.7822      0.00000
    650      11.8034      0.00000
    651      11.8223      0.00000
    652      11.8408      0.00000
    653      11.8610      0.00000
    654      11.8896      0.00000
    655      11.9242      0.00000
    656      11.9385      0.00000
    657      11.9670      0.00000
    658      11.9863      0.00000
    659      12.0446      0.00000
    660      12.1265      0.00000
    661      12.1830      0.00000
    662      12.2073      0.00000
    663      12.2178      0.00000
    664      12.2335      0.00000
    665      12.2388      0.00000
    666      12.2581      0.00000
    667      12.2879      0.00000
    668      12.3023      0.00000
    669      12.4342      0.00000
    670      12.5100      0.00000
    671      12.5238      0.00000
    672      12.5335      0.00000
    673      12.5688      0.00000
    674      12.5830      0.00000
    675      12.5896      0.00000
    676      12.6101      0.00000
    677      12.6329      0.00000
    678      12.8165      0.00000
    679      12.8593      0.00000
    680      12.9321      0.00000
    681      12.9419      0.00000
    682      12.9831      0.00000
    683      13.0130      0.00000
    684      13.0259      0.00000
    685      13.0505      0.00000
    686      13.0687      0.00000
    687      13.0901      0.00000
    688      13.1156      0.00000
    689      13.1464      0.00000
    690      13.1682      0.00000
    691      13.2236      0.00000
    692      13.2595      0.00000
    693      13.3178      0.00000
    694      13.4833      0.00000
    695      13.5176      0.00000
    696      13.5561      0.00000

 k-point     2 :       0.3333    0.0000    0.0000
  band No.  band energies     occupation 
      1     -55.6171      1.00000
      2     -55.6145      1.00000
      3     -55.5712      1.00000
      4     -55.5511      1.00000
      5     -55.5371      1.00000
      6     -55.5336      1.00000
      7     -55.5212      1.00000
      8     -55.5205      1.00000
      9     -55.5196      1.00000
     10     -55.5191      1.00000
     11     -55.5119      1.00000
     12     -55.5009      1.00000
     13     -55.4926      1.00000
     14     -55.4904      1.00000
     15     -55.4834      1.00000
     16     -55.4798      1.00000
     17     -55.4664      1.00000
     18     -55.4585      1.00000
     19     -55.4554      1.00000
     20     -55.4533      1.00000
     21     -55.4403      1.00000
     22     -55.4383      1.00000
     23     -55.4375      1.00000
     24     -55.4203      1.00000
     25     -55.4178      1.00000
     26     -55.4158      1.00000
     27     -55.4089      1.00000
     28     -55.4007      1.00000
     29     -55.3992      1.00000
     30     -55.3931      1.00000
     31     -55.3870      1.00000
     32     -55.3790      1.00000
     33     -55.3769      1.00000
     34     -55.3687      1.00000
     35     -55.3684      1.00000
     36     -55.3683      1.00000
     37     -55.3634      1.00000
     38     -55.3553      1.00000
     39     -55.3544      1.00000
     40     -55.3506      1.00000
     41     -55.3469      1.00000
     42     -55.3465      1.00000
     43     -55.3176      1.00000
     44     -55.3175      1.00000
     45     -55.3141      1.00000
     46     -55.3131      1.00000
     47     -55.3052      1.00000
     48     -55.3012      1.00000
     49     -55.3011      1.00000
     50     -55.2970      1.00000
     51     -55.2962      1.00000
     52     -55.2955      1.00000
     53     -55.2894      1.00000
     54     -55.2844      1.00000
     55     -55.2744      1.00000
     56     -55.2739      1.00000
     57     -55.2734      1.00000
     58     -55.2704      1.00000
     59     -55.2690      1.00000
     60     -55.2689      1.00000
     61     -55.2567      1.00000
     62     -55.2428      1.00000
     63     -55.2410      1.00000
     64     -55.2361      1.00000
     65     -55.2252      1.00000
     66     -55.2187      1.00000
     67     -55.2180      1.00000
     68     -55.1870      1.00000
     69     -55.1796      1.00000
     70     -51.8484      1.00000
     71     -50.4068      1.00000
     72     -50.1150      1.00000
     73     -18.9790      1.00000
     74     -18.7946      1.00000
     75     -18.7470      1.00000
     76     -18.6254      1.00000
     77     -18.5258      1.00000
     78     -18.4680      1.00000
     79     -18.4369      1.00000
     80     -18.3983      1.00000
     81     -18.3751      1.00000
     82     -18.3684      1.00000
     83     -18.3535      1.00000
     84     -18.3285      1.00000
     85     -18.3079      1.00000
     86     -18.2979      1.00000
     87     -18.2901      1.00000
     88     -18.2506      1.00000
     89     -18.2363      1.00000
     90     -18.2171      1.00000
     91     -18.2094      1.00000
     92     -18.2009      1.00000
     93     -18.1911      1.00000
     94     -18.1730      1.00000
     95     -18.1618      1.00000
     96     -18.1396      1.00000
     97     -18.1301      1.00000
     98     -18.1272      1.00000
     99     -18.0750      1.00000
    100     -16.3212      1.00000
    101     -16.2315      1.00000
    102     -16.1845      1.00000
    103     -16.1812      1.00000
    104     -16.1583      1.00000
    105     -16.1495      1.00000
    106     -16.1248      1.00000
    107     -16.1046      1.00000
    108     -16.0900      1.00000
    109     -16.0824      1.00000
    110     -16.0758      1.00000
    111     -16.0694      1.00000
    112     -16.0594      1.00000
    113     -16.0545      1.00000
    114     -16.0399      1.00000
    115     -16.0356      1.00000
    116     -16.0294      1.00000
    117     -16.0210      1.00000
    118     -16.0062      1.00000
    119     -15.9969      1.00000
    120     -15.9861      1.00000
    121     -15.9796      1.00000
    122     -15.9537      1.00000
    123     -15.9362      1.00000
    124     -15.9170      1.00000
    125     -15.9074      1.00000
    126     -15.8749      1.00000
    127     -15.8489      1.00000
    128     -15.8398      1.00000
    129     -15.8256      1.00000
    130     -15.8157      1.00000
    131     -15.8072      1.00000
    132     -15.7995      1.00000
    133     -15.7932      1.00000
    134     -15.7852      1.00000
    135     -15.7755      1.00000
    136     -15.7714      1.00000
    137     -15.7635      1.00000
    138     -15.7610      1.00000
    139     -15.7535      1.00000
    140     -15.7483      1.00000
    141     -15.7410      1.00000
    142     -15.7367      1.00000
    143     -15.7313      1.00000
    144     -15.7267      1.00000
    145     -15.7240      1.00000
    146     -15.7124      1.00000
    147     -15.7010      1.00000
    148     -15.6951      1.00000
    149     -15.6882      1.00000
    150     -15.6788      1.00000
    151     -15.6714      1.00000
    152     -15.6600      1.00000
    153     -15.6527      1.00000
    154     -15.6494      1.00000
    155     -15.6412      1.00000
    156     -15.6284      1.00000
    157     -15.6275      1.00000
    158     -15.6178      1.00000
    159     -15.6122      1.00000
    160     -15.6038      1.00000
    161     -15.6000      1.00000
    162     -15.5982      1.00000
    163     -15.5893      1.00000
    164     -15.5856      1.00000
    165     -15.5758      1.00000
    166     -15.5708      1.00000
    167     -15.5502      1.00000
    168     -15.5191      1.00000
    169     -15.5022      1.00000
    170     -15.4758      1.00000
    171     -15.4404      1.00000
    172      -7.0164      1.00000
    173      -6.9052      1.00000
    174      -6.8859      1.00000
    175      -6.8652      1.00000
    176      -6.8545      1.00000
    177      -6.8385      1.00000
    178      -6.8233      1.00000
    179      -6.7989      1.00000
    180      -6.7630      1.00000
    181      -6.7100      1.00000
    182      -6.7037      1.00000
    183      -6.6457      1.00000
    184      -6.6357      1.00000
    185      -6.5639      1.00000
    186      -6.5211      1.00000
    187      -6.5042      1.00000
    188      -6.4913      1.00000
    189      -6.4710      1.00000
    190      -6.4504      1.00000
    191      -6.4251      1.00000
    192      -6.4044      1.00000
    193      -6.3326      1.00000
    194      -6.2468      1.00000
    195      -6.0981      1.00000
    196      -6.0148      1.00000
    197      -5.9809      1.00000
    198      -5.9774      1.00000
    199      -5.9657      1.00000
    200      -5.9424      1.00000
    201      -5.9370      1.00000
    202      -5.9100      1.00000
    203      -5.9009      1.00000
    204      -5.8587      1.00000
    205      -5.8385      1.00000
    206      -5.8349      1.00000
    207      -5.8160      1.00000
    208      -5.8042      1.00000
    209      -5.7940      1.00000
    210      -5.7829      1.00000
    211      -5.7793      1.00000
    212      -5.7719      1.00000
    213      -5.7504      1.00000
    214      -5.6695      1.00000
    215      -5.6368      1.00000
    216      -5.6145      1.00000
    217      -5.5458      1.00000
    218      -5.5310      1.00000
    219      -5.5027      1.00000
    220      -5.4684      1.00000
    221      -5.4085      1.00000
    222      -5.3863      1.00000
    223      -5.3570      1.00000
    224      -5.3072      1.00000
    225      -5.2991      1.00000
    226      -5.2752      1.00000
    227      -5.2602      1.00000
    228      -5.2436      1.00000
    229      -5.2357      1.00000
    230      -5.2225      1.00000
    231      -5.2147      1.00000
    232      -5.2054      1.00000
    233      -5.2047      1.00000
    234      -5.1903      1.00000
    235      -5.1866      1.00000
    236      -5.1749      1.00000
    237      -5.1654      1.00000
    238      -5.1542      1.00000
    239      -5.1447      1.00000
    240      -5.1397      1.00000
    241      -5.1282      1.00000
    242      -5.1180      1.00000
    243      -5.1096      1.00000
    244      -5.1037      1.00000
    245      -5.0955      1.00000
    246      -5.0899      1.00000
    247      -5.0848      1.00000
    248      -5.0830      1.00000
    249      -5.0744      1.00000
    250      -5.0655      1.00000
    251      -5.0583      1.00000
    252      -5.0552      1.00000
    253      -5.0519      1.00000
    254      -5.0476      1.00000
    255      -5.0431      1.00000
    256      -5.0388      1.00000
    257      -5.0371      1.00000
    258      -5.0315      1.00000
    259      -5.0241      1.00000
    260      -5.0226      1.00000
    261      -5.0203      1.00000
    262      -5.0106      1.00000
    263      -5.0009      1.00000
    264      -4.9978      1.00000
    265      -4.9866      1.00000
    266      -4.9841      1.00000
    267      -4.9761      1.00000
    268      -4.9699      1.00000
    269      -4.9644      1.00000
    270      -4.9609      1.00000
    271      -4.9561      1.00000
    272      -4.9520      1.00000
    273      -4.9474      1.00000
    274      -4.9410      1.00000
    275      -4.9350      1.00000
    276      -4.9254      1.00000
    277      -4.9168      1.00000
    278      -4.9131      1.00000
    279      -4.9079      1.00000
    280      -4.8994      1.00000
    281      -4.8963      1.00000
    282      -4.8871      1.00000
    283      -4.8815      1.00000
    284      -4.8785      1.00000
    285      -4.8703      1.00000
    286      -4.8678      1.00000
    287      -4.8516      1.00000
    288      -4.8314      1.00000
    289      -4.8172      1.00000
    290      -4.8090      1.00000
    291      -4.8005      1.00000
    292      -4.7877      1.00000
    293      -4.7490      1.00000
    294      -4.7220      1.00000
    295      -4.6936      1.00000
    296      -4.6497      1.00000
    297      -4.6422      1.00000
    298      -4.6158      1.00000
    299      -4.6075      1.00000
    300      -4.5858      1.00000
    301      -4.5749      1.00000
    302      -4.4636      1.00000
    303      -4.4094      1.00000
    304      -4.3700      1.00000
    305      -4.3551      1.00000
    306      -4.3425      1.00000
    307      -4.2889      1.00000
    308      -4.2487      1.00000
    309      -4.1864      1.00000
    310      -4.1541      1.00000
    311      -4.1154      1.00000
    312      -4.1001      1.00000
    313      -3.8927      1.00000
    314      -3.8771      1.00000
    315      -3.7539      1.00000
    316      -3.6949      1.00000
    317      -3.6090      1.00000
    318      -3.4876      1.00000
    319      -3.4388      1.00000
    320      -3.3913      1.00000
    321      -3.3787      1.00000
    322      -3.3470      1.00000
    323      -3.2736      1.00000
    324      -3.2358      1.00000
    325      -3.1471      1.00000
    326      -3.1426      1.00000
    327      -3.1156      1.00000
    328      -3.1029      1.00000
    329      -3.0951      1.00000
    330      -3.0724      1.00000
    331      -3.0670      1.00000
    332      -3.0551      1.00000
    333      -3.0478      1.00000
    334      -3.0422      1.00000
    335      -3.0141      1.00000
    336      -3.0017      1.00000
    337      -2.9846      1.00000
    338      -2.9246      1.00000
    339      -2.9124      1.00000
    340      -2.8970      1.00000
    341      -2.8804      1.00000
    342      -2.8501      1.00000
    343      -2.8284      1.00000
    344      -2.8230      1.00000
    345      -2.8113      1.00000
    346      -2.7967      1.00000
    347      -2.7879      1.00000
    348      -2.7727      1.00000
    349      -2.7432      1.00000
    350      -2.7356      1.00000
    351      -2.7180      1.00000
    352      -2.7127      1.00000
    353      -2.6901      1.00000
    354      -2.6655      1.00000
    355      -2.6593      1.00000
    356      -2.6523      1.00000
    357      -2.6297      1.00000
    358      -2.6163      1.00000
    359      -2.6034      1.00000
    360      -2.5601      1.00000
    361      -2.5166      1.00000
    362      -2.5100      1.00000
    363      -2.4775      1.00000
    364      -2.4550      1.00000
    365      -2.4382      1.00000
    366      -2.4229      1.00000
    367      -2.3634      1.00000
    368      -2.3524      1.00000
    369      -2.3378      1.00000
    370      -2.3340      1.00000
    371      -2.3097      1.00000
    372      -2.3040      1.00000
    373      -2.2835      1.00000
    374      -2.2490      1.00000
    375      -2.2385      1.00000
    376      -2.2318      1.00000
    377      -2.2244      1.00000
    378      -2.2061      1.00000
    379      -2.1706      1.00000
    380      -2.1223      1.00000
    381      -2.0214      1.00000
    382      -1.9661      1.00000
    383      -1.6902      1.00000
    384      -1.5489      1.00000
    385      -1.5035      1.00000
    386      -1.4066      1.00000
    387      -1.3898      1.00000
    388      -1.3387      1.00000
    389      -1.3147      1.00000
    390      -1.2653      1.00000
    391      -1.2554      1.00000
    392      -1.2489      1.00000
    393      -1.2191      1.00000
    394      -1.2071      1.00000
    395      -1.1809      1.00000
    396      -1.1206      1.00000
    397      -1.0962      1.00000
    398      -1.0313      1.00000
    399      -1.0096      1.00000
    400      -0.9915      1.00000
    401      -0.9602      1.00000
    402      -0.9317      1.00000
    403      -0.9131      1.00000
    404      -0.9066      1.00000
    405      -0.8941      1.00000
    406      -0.8796      1.00000
    407      -0.8640      1.00000
    408      -0.8423      1.00000
    409      -0.8138      1.00000
    410      -0.7957      1.00000
    411      -0.7730      1.00000
    412      -0.7629      1.00000
    413      -0.7330      1.00000
    414      -0.7130      1.00000
    415      -0.7079      1.00000
    416      -0.6754      1.00000
    417      -0.6619      1.00000
    418      -0.6315      1.00000
    419      -0.6175      1.00000
    420      -0.5653      1.00000
    421      -0.5312      1.00000
    422      -0.5132      1.00000
    423      -0.4844      1.00000
    424      -0.4467      1.00000
    425      -0.4407      1.00000
    426      -0.4331      1.00000
    427      -0.4100      1.00000
    428      -0.3925      1.00000
    429      -0.3750      1.00000
    430      -0.3650      1.00000
    431      -0.3558      1.00000
    432      -0.3519      1.00000
    433      -0.3291      1.00000
    434      -0.3259      1.00000
    435      -0.3026      1.00000
    436      -0.2580      1.00000
    437      -0.2410      1.00000
    438      -0.1946      1.00000
    439      -0.1911      1.00000
    440      -0.1771      1.00000
    441      -0.1670      1.00000
    442      -0.1616      1.00000
    443      -0.1460      1.00000
    444      -0.1175      1.00000
    445      -0.1038      1.00000
    446      -0.0939      1.00000
    447      -0.0627      1.00000
    448      -0.0541      1.00000
    449      -0.0457      1.00000
    450      -0.0348      1.00000
    451      -0.0280      1.00000
    452      -0.0135      1.00000
    453       0.0077      1.00000
    454       0.0306      1.00000
    455       0.0499      1.00000
    456       0.0747      1.00000
    457       0.0915      1.00000
    458       0.1036      1.00000
    459       0.1110      1.00000
    460       0.1181      1.00000
    461       0.1377      1.00000
    462       0.1530      1.00000
    463       0.1619      1.00000
    464       0.1808      1.00000
    465       0.2013      1.00000
    466       0.2098      1.00000
    467       0.2206      1.00000
    468       0.2331      1.00000
    469       0.2404      1.00000
    470       0.2537      1.00000
    471       0.2740      1.00000
    472       0.2861      1.00000
    473       0.2918      1.00000
    474       0.3051      1.00000
    475       0.3166      1.00000
    476       0.3302      1.00000
    477       0.3515      1.00000
    478       0.3615      1.00000
    479       0.4140      1.00000
    480       0.4269      1.00000
    481       0.4822      1.00000
    482       0.5007      1.00000
    483       0.5177      1.00000
    484       0.5361      1.00000
    485       0.5438      1.00000
    486       0.5621      1.00000
    487       0.5772      1.00000
    488       0.5883      1.00000
    489       0.6736      1.00000
    490       0.6985      1.00000
    491       0.7776      1.00000
    492       0.7885      1.00000
    493       0.7988      1.00000
    494       0.8047      1.00000
    495       0.8249      1.00000
    496       0.8283      1.00000
    497       0.8304      1.00000
    498       0.8547      1.00000
    499       0.8764      1.00000
    500       0.8972      1.00000
    501       0.9203      1.00000
    502       0.9231      1.00000
    503       0.9454      1.00000
    504       0.9644      1.00000
    505       0.9741      1.00000
    506       1.0027      1.00000
    507       1.0227      1.00000
    508       1.0350      1.00000
    509       1.0452      1.00000
    510       1.0545      1.00000
    511       1.0598      1.00000
    512       1.0796      1.00000
    513       1.1108      1.00000
    514       1.1485      1.00000
    515       1.1569      1.00000
    516       1.1755      1.00000
    517       1.2002      1.00000
    518       1.2046      1.00000
    519       1.2247      1.00000
    520       1.2346      1.00000
    521       1.2483      1.00000
    522       1.2943      1.00000
    523       1.3256      1.00000
    524       1.3326      1.00000
    525       1.3389      1.00000
    526       1.3472      1.00000
    527       1.3602      1.00000
    528       1.3699      1.00000
    529       1.3846      1.00000
    530       1.3981      1.00000
    531       1.4052      1.00000
    532       1.4254      1.00000
    533       1.4459      1.00000
    534       1.4931      1.00000
    535       1.4980      1.00000
    536       1.5269      1.00000
    537       1.5540      1.00000
    538       1.5694      1.00000
    539       1.5792      1.00000
    540       1.5907      1.00000
    541       1.5980      1.00000
    542       1.6085      1.00000
    543       1.6263      1.00000
    544       1.6327      1.00000
    545       1.6380      1.00000
    546       1.6698      1.00000
    547       1.6772      1.00000
    548       1.6999      1.00000
    549       1.7121      1.00000
    550       1.7300      1.00000
    551       1.7471      1.00000
    552       1.7537      1.00000
    553       1.7616      1.00000
    554       1.7724      1.00000
    555       1.7789      1.00000
    556       1.7876      1.00000
    557       1.7962      1.00000
    558       1.8010      1.00000
    559       1.8138      1.00000
    560       1.8209      1.00000
    561       1.8283      1.00000
    562       1.8495      1.00000
    563       1.8558      1.00000
    564       1.8717      1.00000
    565       1.8806      1.00000
    566       1.8972      1.00000
    567       1.9146      1.00000
    568       1.9217      1.00000
    569       1.9290      1.00000
    570       1.9451      1.00000
    571       1.9622      1.00000
    572       1.9818      1.00000
    573       1.9938      1.00000
    574       2.0013      1.00000
    575       2.0258      1.00000
    576       2.0347      1.00000
    577       2.0646      1.00000
    578       2.2120      1.00000
    579       2.3823      1.00000
    580       7.7825      0.00000
    581       8.5305      0.00000
    582       8.5748      0.00000
    583       8.6774      0.00000
    584       9.2512      0.00000
    585       9.2815      0.00000
    586       9.4336      0.00000
    587       9.4747      0.00000
    588       9.9516      0.00000
    589      10.0106      0.00000
    590      10.0277      0.00000
    591      10.0425      0.00000
    592      10.0639      0.00000
    593      10.0794      0.00000
    594      10.1572      0.00000
    595      10.2626      0.00000
    596      10.2873      0.00000
    597      10.3910      0.00000
    598      10.4304      0.00000
    599      10.4981      0.00000
    600      10.6053      0.00000
    601      10.6396      0.00000
    602      10.6583      0.00000
    603      10.6713      0.00000
    604      10.6797      0.00000
    605      10.7032      0.00000
    606      10.7377      0.00000
    607      10.8362      0.00000
    608      10.8439      0.00000
    609      10.8803      0.00000
    610      10.9117      0.00000
    611      10.9340      0.00000
    612      10.9454      0.00000
    613      10.9790      0.00000
    614      11.0004      0.00000
    615      11.0098      0.00000
    616      11.0449      0.00000
    617      11.0675      0.00000
    618      11.0790      0.00000
    619      11.1032      0.00000
    620      11.1202      0.00000
    621      11.1359      0.00000
    622      11.1721      0.00000
    623      11.1963      0.00000
    624      11.2211      0.00000
    625      11.2389      0.00000
    626      11.2576      0.00000
    627      11.2780      0.00000
    628      11.2845      0.00000
    629      11.3057      0.00000
    630      11.3229      0.00000
    631      11.3460      0.00000
    632      11.3745      0.00000
    633      11.3898      0.00000
    634      11.3972      0.00000
    635      11.4015      0.00000
    636      11.4087      0.00000
    637      11.4184      0.00000
    638      11.4482      0.00000
    639      11.4594      0.00000
    640      11.4732      0.00000
    641      11.4962      0.00000
    642      11.5434      0.00000
    643      11.5500      0.00000
    644      11.6813      0.00000
    645      11.7022      0.00000
    646      11.7258      0.00000
    647      11.7625      0.00000
    648      11.7897      0.00000
    649      11.8088      0.00000
    650      11.8385      0.00000
    651      11.8515      0.00000
    652      11.8577      0.00000
    653      11.8828      0.00000
    654      11.8940      0.00000
    655      11.9064      0.00000
    656      11.9247      0.00000
    657      11.9471      0.00000
    658      11.9628      0.00000
    659      11.9980      0.00000
    660      12.0282      0.00000
    661      12.0784      0.00000
    662      12.0863      0.00000
    663      12.1466      0.00000
    664      12.1644      0.00000
    665      12.1760      0.00000
    666      12.1876      0.00000
    667      12.2071      0.00000
    668      12.2226      0.00000
    669      12.2389      0.00000
    670      12.5209      0.00000
    671      12.5783      0.00000
    672      12.5886      0.00000
    673      12.6654      0.00000
    674      12.7504      0.00000
    675      12.7860      0.00000
    676      12.8126      0.00000
    677      12.8429      0.00000
    678      12.8764      0.00000
    679      12.9003      0.00000
    680      12.9092      0.00000
    681      12.9189      0.00000
    682      12.9935      0.00000
    683      13.0119      0.00000
    684      13.0227      0.00000
    685      13.0414      0.00000
    686      13.0621      0.00000
    687      13.0740      0.00000
    688      13.0903      0.00000
    689      13.1139      0.00000
    690      13.1230      0.00000
    691      13.1779      0.00000
    692      13.2341      0.00000
    693      13.2643      0.00000
    694      13.3784      0.00000
    695      13.4209      0.00000
    696      13.4449      0.00000

 k-point     3 :       0.0000    0.0000    0.3333
  band No.  band energies     occupation 
      1     -55.6171      1.00000
      2     -55.6145      1.00000
      3     -55.5712      1.00000
      4     -55.5511      1.00000
      5     -55.5371      1.00000
      6     -55.5336      1.00000
      7     -55.5212      1.00000
      8     -55.5205      1.00000
      9     -55.5196      1.00000
     10     -55.5191      1.00000
     11     -55.5119      1.00000
     12     -55.5009      1.00000
     13     -55.4926      1.00000
     14     -55.4904      1.00000
     15     -55.4834      1.00000
     16     -55.4798      1.00000
     17     -55.4664      1.00000
     18     -55.4585      1.00000
     19     -55.4554      1.00000
     20     -55.4533      1.00000
     21     -55.4403      1.00000
     22     -55.4383      1.00000
     23     -55.4375      1.00000
     24     -55.4203      1.00000
     25     -55.4178      1.00000
     26     -55.4158      1.00000
     27     -55.4089      1.00000
     28     -55.4007      1.00000
     29     -55.3992      1.00000
     30     -55.3931      1.00000
     31     -55.3870      1.00000
     32     -55.3790      1.00000
     33     -55.3769      1.00000
     34     -55.3687      1.00000
     35     -55.3684      1.00000
     36     -55.3683      1.00000
     37     -55.3634      1.00000
     38     -55.3553      1.00000
     39     -55.3544      1.00000
     40     -55.3506      1.00000
     41     -55.3469      1.00000
     42     -55.3465      1.00000
     43     -55.3176      1.00000
     44     -55.3175      1.00000
     45     -55.3141      1.00000
     46     -55.3131      1.00000
     47     -55.3052      1.00000
     48     -55.3012      1.00000
     49     -55.3011      1.00000
     50     -55.2970      1.00000
     51     -55.2962      1.00000
     52     -55.2955      1.00000
     53     -55.2894      1.00000
     54     -55.2844      1.00000
     55     -55.2744      1.00000
     56     -55.2739      1.00000
     57     -55.2734      1.00000
     58     -55.2704      1.00000
     59     -55.2690      1.00000
     60     -55.2689      1.00000
     61     -55.2567      1.00000
     62     -55.2428      1.00000
     63     -55.2410      1.00000
     64     -55.2361      1.00000
     65     -55.2252      1.00000
     66     -55.2187      1.00000
     67     -55.2180      1.00000
     68     -55.1870      1.00000
     69     -55.1796      1.00000
     70     -51.8484      1.00000
     71     -50.4068      1.00000
     72     -50.1151      1.00000
     73     -18.9816      1.00000
     74     -18.7949      1.00000
     75     -18.7467      1.00000
     76     -18.6233      1.00000
     77     -18.5298      1.00000
     78     -18.4704      1.00000
     79     -18.4482      1.00000
     80     -18.4192      1.00000
     81     -18.3792      1.00000
     82     -18.3365      1.00000
     83     -18.3109      1.00000
     84     -18.3070      1.00000
     85     -18.2943      1.00000
     86     -18.2823      1.00000
     87     -18.2657      1.00000
     88     -18.2591      1.00000
     89     -18.2457      1.00000
     90     -18.2272      1.00000
     91     -18.2178      1.00000
     92     -18.2135      1.00000
     93     -18.2043      1.00000
     94     -18.1980      1.00000
     95     -18.1773      1.00000
     96     -18.1665      1.00000
     97     -18.1322      1.00000
     98     -18.1159      1.00000
     99     -18.0684      1.00000
    100     -16.3166      1.00000
    101     -16.2189      1.00000
    102     -16.1808      1.00000
    103     -16.1759      1.00000
    104     -16.1611      1.00000
    105     -16.1504      1.00000
    106     -16.1418      1.00000
    107     -16.1250      1.00000
    108     -16.1080      1.00000
    109     -16.1046      1.00000
    110     -16.0869      1.00000
    111     -16.0643      1.00000
    112     -16.0384      1.00000
    113     -16.0143      1.00000
    114     -16.0076      1.00000
    115     -16.0018      1.00000
    116     -15.9912      1.00000
    117     -15.9804      1.00000
    118     -15.9775      1.00000
    119     -15.9713      1.00000
    120     -15.9682      1.00000
    121     -15.9563      1.00000
    122     -15.9532      1.00000
    123     -15.9497      1.00000
    124     -15.9159      1.00000
    125     -15.9114      1.00000
    126     -15.9031      1.00000
    127     -15.8924      1.00000
    128     -15.8830      1.00000
    129     -15.8695      1.00000
    130     -15.8619      1.00000
    131     -15.8570      1.00000
    132     -15.8355      1.00000
    133     -15.8227      1.00000
    134     -15.8080      1.00000
    135     -15.7973      1.00000
    136     -15.7850      1.00000
    137     -15.7715      1.00000
    138     -15.7505      1.00000
    139     -15.7432      1.00000
    140     -15.7398      1.00000
    141     -15.7347      1.00000
    142     -15.7295      1.00000
    143     -15.7216      1.00000
    144     -15.7180      1.00000
    145     -15.7091      1.00000
    146     -15.7056      1.00000
    147     -15.6963      1.00000
    148     -15.6948      1.00000
    149     -15.6858      1.00000
    150     -15.6698      1.00000
    151     -15.6610      1.00000
    152     -15.6558      1.00000
    153     -15.6492      1.00000
    154     -15.6415      1.00000
    155     -15.6391      1.00000
    156     -15.6323      1.00000
    157     -15.6243      1.00000
    158     -15.6221      1.00000
    159     -15.6093      1.00000
    160     -15.6032      1.00000
    161     -15.6014      1.00000
    162     -15.5977      1.00000
    163     -15.5872      1.00000
    164     -15.5779      1.00000
    165     -15.5721      1.00000
    166     -15.5615      1.00000
    167     -15.5414      1.00000
    168     -15.5132      1.00000
    169     -15.5015      1.00000
    170     -15.4682      1.00000
    171     -15.4412      1.00000
    172      -7.1355      1.00000
    173      -6.9814      1.00000
    174      -6.9620      1.00000
    175      -6.9543      1.00000
    176      -6.9439      1.00000
    177      -6.9277      1.00000
    178      -6.9258      1.00000
    179      -6.9216      1.00000
    180      -6.9057      1.00000
    181      -6.8917      1.00000
    182      -6.8607      1.00000
    183      -6.7346      1.00000
    184      -6.3868      1.00000
    185      -6.3432      1.00000
    186      -6.3171      1.00000
    187      -6.2798      1.00000
    188      -6.2703      1.00000
    189      -6.2166      1.00000
    190      -6.1455      1.00000
    191      -6.1195      1.00000
    192      -6.1007      1.00000
    193      -6.0911      1.00000
    194      -6.0847      1.00000
    195      -6.0770      1.00000
    196      -6.0669      1.00000
    197      -6.0416      1.00000
    198      -6.0340      1.00000
    199      -6.0194      1.00000
    200      -6.0143      1.00000
    201      -5.9887      1.00000
    202      -5.9599      1.00000
    203      -5.9270      1.00000
    204      -5.9021      1.00000
    205      -5.8853      1.00000
    206      -5.8743      1.00000
    207      -5.8654      1.00000
    208      -5.8397      1.00000
    209      -5.8246      1.00000
    210      -5.8127      1.00000
    211      -5.8050      1.00000
    212      -5.7030      1.00000
    213      -5.6772      1.00000
    214      -5.6390      1.00000
    215      -5.6000      1.00000
    216      -5.5804      1.00000
    217      -5.5601      1.00000
    218      -5.5470      1.00000
    219      -5.4945      1.00000
    220      -5.4848      1.00000
    221      -5.4640      1.00000
    222      -5.4390      1.00000
    223      -5.4226      1.00000
    224      -5.3433      1.00000
    225      -5.3192      1.00000
    226      -5.3047      1.00000
    227      -5.2903      1.00000
    228      -5.2796      1.00000
    229      -5.2611      1.00000
    230      -5.2584      1.00000
    231      -5.2447      1.00000
    232      -5.2240      1.00000
    233      -5.2187      1.00000
    234      -5.2121      1.00000
    235      -5.2006      1.00000
    236      -5.1840      1.00000
    237      -5.1715      1.00000
    238      -5.1609      1.00000
    239      -5.1476      1.00000
    240      -5.1425      1.00000
    241      -5.1329      1.00000
    242      -5.1276      1.00000
    243      -5.1235      1.00000
    244      -5.1188      1.00000
    245      -5.1117      1.00000
    246      -5.1035      1.00000
    247      -5.0985      1.00000
    248      -5.0889      1.00000
    249      -5.0874      1.00000
    250      -5.0779      1.00000
    251      -5.0755      1.00000
    252      -5.0675      1.00000
    253      -5.0654      1.00000
    254      -5.0571      1.00000
    255      -5.0461      1.00000
    256      -5.0420      1.00000
    257      -5.0358      1.00000
    258      -5.0283      1.00000
    259      -5.0248      1.00000
    260      -5.0202      1.00000
    261      -5.0134      1.00000
    262      -5.0099      1.00000
    263      -4.9996      1.00000
    264      -4.9941      1.00000
    265      -4.9898      1.00000
    266      -4.9874      1.00000
    267      -4.9863      1.00000
    268      -4.9791      1.00000
    269      -4.9741      1.00000
    270      -4.9698      1.00000
    271      -4.9686      1.00000
    272      -4.9612      1.00000
    273      -4.9548      1.00000
    274      -4.9508      1.00000
    275      -4.9459      1.00000
    276      -4.9433      1.00000
    277      -4.9352      1.00000
    278      -4.9315      1.00000
    279      -4.9286      1.00000
    280      -4.9248      1.00000
    281      -4.9126      1.00000
    282      -4.9057      1.00000
    283      -4.9038      1.00000
    284      -4.9030      1.00000
    285      -4.8982      1.00000
    286      -4.8955      1.00000
    287      -4.8845      1.00000
    288      -4.8777      1.00000
    289      -4.8641      1.00000
    290      -4.8620      1.00000
    291      -4.8516      1.00000
    292      -4.8473      1.00000
    293      -4.8408      1.00000
    294      -4.8259      1.00000
    295      -4.7580      1.00000
    296      -4.7494      1.00000
    297      -4.7354      1.00000
    298      -4.7261      1.00000
    299      -4.6629      1.00000
    300      -4.5925      1.00000
    301      -4.4444      1.00000
    302      -4.4317      1.00000
    303      -4.3616      1.00000
    304      -4.3100      1.00000
    305      -4.2404      1.00000
    306      -4.2038      1.00000
    307      -4.1631      1.00000
    308      -4.1363      1.00000
    309      -4.1190      1.00000
    310      -3.9988      1.00000
    311      -3.9529      1.00000
    312      -3.8883      1.00000
    313      -3.8707      1.00000
    314      -3.8209      1.00000
    315      -3.7542      1.00000
    316      -3.6277      1.00000
    317      -3.6017      1.00000
    318      -3.5146      1.00000
    319      -3.4678      1.00000
    320      -3.3910      1.00000
    321      -3.2886      1.00000
    322      -3.2701      1.00000
    323      -3.2370      1.00000
    324      -3.2253      1.00000
    325      -3.2132      1.00000
    326      -3.1929      1.00000
    327      -3.1826      1.00000
    328      -3.1784      1.00000
    329      -3.1533      1.00000
    330      -3.1327      1.00000
    331      -3.1164      1.00000
    332      -3.1009      1.00000
    333      -3.0424      1.00000
    334      -3.0203      1.00000
    335      -2.9785      1.00000
    336      -2.9713      1.00000
    337      -2.9404      1.00000
    338      -2.9237      1.00000
    339      -2.9092      1.00000
    340      -2.8969      1.00000
    341      -2.8833      1.00000
    342      -2.8787      1.00000
    343      -2.8683      1.00000
    344      -2.8429      1.00000
    345      -2.8292      1.00000
    346      -2.8186      1.00000
    347      -2.8116      1.00000
    348      -2.7903      1.00000
    349      -2.7758      1.00000
    350      -2.7730      1.00000
    351      -2.7555      1.00000
    352      -2.7409      1.00000
    353      -2.7293      1.00000
    354      -2.7188      1.00000
    355      -2.7001      1.00000
    356      -2.6877      1.00000
    357      -2.6797      1.00000
    358      -2.6669      1.00000
    359      -2.6541      1.00000
    360      -2.6511      1.00000
    361      -2.6061      1.00000
    362      -2.5903      1.00000
    363      -2.5753      1.00000
    364      -2.5637      1.00000
    365      -2.5468      1.00000
    366      -2.5180      1.00000
    367      -2.5049      1.00000
    368      -2.4479      1.00000
    369      -2.3878      1.00000
    370      -2.3495      1.00000
    371      -2.2637      1.00000
    372      -2.2421      1.00000
    373      -2.2188      1.00000
    374      -2.2098      1.00000
    375      -2.1554      1.00000
    376      -2.1431      1.00000
    377      -2.0904      1.00000
    378      -2.0728      1.00000
    379      -2.0596      1.00000
    380      -1.9694      1.00000
    381      -1.8867      1.00000
    382      -1.7971      1.00000
    383      -1.5854      1.00000
    384      -1.5056      1.00000
    385      -1.4696      1.00000
    386      -1.4480      1.00000
    387      -1.3834      1.00000
    388      -1.3707      1.00000
    389      -1.2949      1.00000
    390      -1.2743      1.00000
    391      -1.2090      1.00000
    392      -1.1837      1.00000
    393      -1.1642      1.00000
    394      -1.1145      1.00000
    395      -1.1044      1.00000
    396      -1.0906      1.00000
    397      -1.0575      1.00000
    398      -1.0453      1.00000
    399      -1.0224      1.00000
    400      -1.0156      1.00000
    401      -0.9763      1.00000
    402      -0.9684      1.00000
    403      -0.9561      1.00000
    404      -0.9444      1.00000
    405      -0.9316      1.00000
    406      -0.9104      1.00000
    407      -0.8921      1.00000
    408      -0.8792      1.00000
    409      -0.8553      1.00000
    410      -0.8445      1.00000
    411      -0.8339      1.00000
    412      -0.7966      1.00000
    413      -0.7626      1.00000
    414      -0.7152      1.00000
    415      -0.6781      1.00000
    416      -0.6706      1.00000
    417      -0.6422      1.00000
    418      -0.6130      1.00000
    419      -0.5869      1.00000
    420      -0.5634      1.00000
    421      -0.5419      1.00000
    422      -0.5200      1.00000
    423      -0.4872      1.00000
    424      -0.4675      1.00000
    425      -0.4580      1.00000
    426      -0.4463      1.00000
    427      -0.4220      1.00000
    428      -0.4120      1.00000
    429      -0.3866      1.00000
    430      -0.3692      1.00000
    431      -0.3645      1.00000
    432      -0.3194      1.00000
    433      -0.2996      1.00000
    434      -0.2834      1.00000
    435      -0.2724      1.00000
    436      -0.2516      1.00000
    437      -0.2422      1.00000
    438      -0.2311      1.00000
    439      -0.1994      1.00000
    440      -0.1899      1.00000
    441      -0.1698      1.00000
    442      -0.1563      1.00000
    443      -0.1443      1.00000
    444      -0.1367      1.00000
    445      -0.1194      1.00000
    446      -0.1048      1.00000
    447      -0.0869      1.00000
    448      -0.0706      1.00000
    449      -0.0510      1.00000
    450      -0.0278      1.00000
    451      -0.0077      1.00000
    452      -0.0002      1.00000
    453       0.0245      1.00000
    454       0.0309      1.00000
    455       0.0560      1.00000
    456       0.0708      1.00000
    457       0.0760      1.00000
    458       0.0816      1.00000
    459       0.1002      1.00000
    460       0.1038      1.00000
    461       0.1193      1.00000
    462       0.1376      1.00000
    463       0.1432      1.00000
    464       0.1853      1.00000
    465       0.2084      1.00000
    466       0.2324      1.00000
    467       0.2355      1.00000
    468       0.2534      1.00000
    469       0.2788      1.00000
    470       0.2857      1.00000
    471       0.3041      1.00000
    472       0.3196      1.00000
    473       0.3225      1.00000
    474       0.3297      1.00000
    475       0.3404      1.00000
    476       0.3465      1.00000
    477       0.3682      1.00000
    478       0.3796      1.00000
    479       0.3975      1.00000
    480       0.4533      1.00000
    481       0.4546      1.00000
    482       0.4945      1.00000
    483       0.5161      1.00000
    484       0.5576      1.00000
    485       0.5649      1.00000
    486       0.5910      1.00000
    487       0.5967      1.00000
    488       0.6394      1.00000
    489       0.6432      1.00000
    490       0.6807      1.00000
    491       0.7204      1.00000
    492       0.7446      1.00000
    493       0.7655      1.00000
    494       0.8201      1.00000
    495       0.8227      1.00000
    496       0.8497      1.00000
    497       0.8575      1.00000
    498       0.8711      1.00000
    499       0.8827      1.00000
    500       0.9016      1.00000
    501       0.9120      1.00000
    502       0.9201      1.00000
    503       0.9300      1.00000
    504       0.9481      1.00000
    505       0.9707      1.00000
    506       0.9983      1.00000
    507       1.0078      1.00000
    508       1.0181      1.00000
    509       1.0414      1.00000
    510       1.0907      1.00000
    511       1.1045      1.00000
    512       1.1306      1.00000
    513       1.1515      1.00000
    514       1.1631      1.00000
    515       1.1722      1.00000
    516       1.1866      1.00000
    517       1.1948      1.00000
    518       1.2080      1.00000
    519       1.2211      1.00000
    520       1.2369      1.00000
    521       1.2858      1.00000
    522       1.3001      1.00000
    523       1.3191      1.00000
    524       1.3260      1.00000
    525       1.3483      1.00000
    526       1.3634      1.00000
    527       1.3854      1.00000
    528       1.3956      1.00000
    529       1.4033      1.00000
    530       1.4270      1.00000
    531       1.4387      1.00000
    532       1.4561      1.00000
    533       1.4699      1.00000
    534       1.4780      1.00000
    535       1.4970      1.00000
    536       1.5026      1.00000
    537       1.5277      1.00000
    538       1.5468      1.00000
    539       1.5604      1.00000
    540       1.5648      1.00000
    541       1.5716      1.00000
    542       1.5818      1.00000
    543       1.5900      1.00000
    544       1.6138      1.00000
    545       1.6238      1.00000
    546       1.6303      1.00000
    547       1.6477      1.00000
    548       1.6557      1.00000
    549       1.6738      1.00000
    550       1.6876      1.00000
    551       1.7007      1.00000
    552       1.7150      1.00000
    553       1.7167      1.00000
    554       1.7245      1.00000
    555       1.7447      1.00000
    556       1.7559      1.00000
    557       1.7615      1.00000
    558       1.7745      1.00000
    559       1.7984      1.00000
    560       1.8053      1.00000
    561       1.8223      1.00000
    562       1.8327      1.00000
    563       1.8420      1.00000
    564       1.8542      1.00000
    565       1.8746      1.00000
    566       1.8965      1.00000
    567       1.9071      1.00000
    568       1.9484      1.00000
    569       1.9569      1.00000
    570       1.9823      1.00000
    571       1.9947      1.00000
    572       1.9995      1.00000
    573       2.0330      1.00000
    574       2.0412      1.00000
    575       2.0539      1.00000
    576       2.0675      1.00000
    577       2.0919      1.00000
    578       2.2329      1.00000
    579       2.3838      1.00000
    580       7.7588      0.00000
    581       8.5228      0.00000
    582       8.5714      0.00000
    583       8.5805      0.00000
    584       9.2229      0.00000
    585       9.2552      0.00000
    586       9.6645      0.00000
    587       9.8617      0.00000
    588       9.9623      0.00000
    589       9.9998      0.00000
    590      10.0166      0.00000
    591      10.0325      0.00000
    592      10.0643      0.00000
    593      10.1420      0.00000
    594      10.1708      0.00000
    595      10.2390      0.00000
    596      10.3220      0.00000
    597      10.3490      0.00000
    598      10.4113      0.00000
    599      10.4388      0.00000
    600      10.4916      0.00000
    601      10.5428      0.00000
    602      10.5795      0.00000
    603      10.6088      0.00000
    604      10.6941      0.00000
    605      10.7049      0.00000
    606      10.7342      0.00000
    607      10.7494      0.00000
    608      10.7642      0.00000
    609      10.7817      0.00000
    610      10.8013      0.00000
    611      10.8100      0.00000
    612      10.8234      0.00000
    613      10.8340      0.00000
    614      10.8711      0.00000
    615      10.8901      0.00000
    616      10.9076      0.00000
    617      10.9417      0.00000
    618      10.9650      0.00000
    619      10.9828      0.00000
    620      10.9998      0.00000
    621      11.0256      0.00000
    622      11.0571      0.00000
    623      11.0867      0.00000
    624      11.1092      0.00000
    625      11.1417      0.00000
    626      11.1647      0.00000
    627      11.2368      0.00000
    628      11.2813      0.00000
    629      11.3188      0.00000
    630      11.3531      0.00000
    631      11.3652      0.00000
    632      11.4008      0.00000
    633      11.4684      0.00000
    634      11.4818      0.00000
    635      11.5189      0.00000
    636      11.5407      0.00000
    637      11.6019      0.00000
    638      11.6437      0.00000
    639      11.6537      0.00000
    640      11.6847      0.00000
    641      11.6898      0.00000
    642      11.7146      0.00000
    643      11.7368      0.00000
    644      11.7572      0.00000
    645      11.7690      0.00000
    646      11.7790      0.00000
    647      11.7938      0.00000
    648      11.8233      0.00000
    649      11.8365      0.00000
    650      11.8563      0.00000
    651      11.8742      0.00000
    652      11.8882      0.00000
    653      11.9142      0.00000
    654      11.9561      0.00000
    655      11.9692      0.00000
    656      12.0317      0.00000
    657      12.0456      0.00000
    658      12.0585      0.00000
    659      12.0688      0.00000
    660      12.0921      0.00000
    661      12.0976      0.00000
    662      12.1204      0.00000
    663      12.1431      0.00000
    664      12.2440      0.00000
    665      12.2712      0.00000
    666      12.2847      0.00000
    667      12.3332      0.00000
    668      12.3849      0.00000
    669      12.4592      0.00000
    670      12.4758      0.00000
    671      12.4853      0.00000
    672      12.5048      0.00000
    673      12.5418      0.00000
    674      12.5677      0.00000
    675      12.5762      0.00000
    676      12.5898      0.00000
    677      12.6472      0.00000
    678      12.6681      0.00000
    679      12.9180      0.00000
    680      12.9557      0.00000
    681      12.9703      0.00000
    682      12.9974      0.00000
    683      13.0069      0.00000
    684      13.0185      0.00000
    685      13.0380      0.00000
    686      13.0785      0.00000
    687      13.0870      0.00000
    688      13.1016      0.00000
    689      13.1382      0.00000
    690      13.1679      0.00000
    691      13.2179      0.00000
    692      13.2317      0.00000
    693      13.2913      0.00000
    694      13.3085      0.00000
    695      13.3409      0.00000
    696      13.4187      0.00000

 k-point     4 :       0.3333    0.0000    0.3333
  band No.  band energies     occupation 
      1     -55.6171      1.00000
      2     -55.6145      1.00000
      3     -55.5712      1.00000
      4     -55.5511      1.00000
      5     -55.5371      1.00000
      6     -55.5336      1.00000
      7     -55.5212      1.00000
      8     -55.5205      1.00000
      9     -55.5196      1.00000
     10     -55.5191      1.00000
     11     -55.5119      1.00000
     12     -55.5009      1.00000
     13     -55.4926      1.00000
     14     -55.4904      1.00000
     15     -55.4834      1.00000
     16     -55.4798      1.00000
     17     -55.4664      1.00000
     18     -55.4585      1.00000
     19     -55.4554      1.00000
     20     -55.4533      1.00000
     21     -55.4403      1.00000
     22     -55.4383      1.00000
     23     -55.4375      1.00000
     24     -55.4203      1.00000
     25     -55.4178      1.00000
     26     -55.4158      1.00000
     27     -55.4089      1.00000
     28     -55.4007      1.00000
     29     -55.3992      1.00000
     30     -55.3931      1.00000
     31     -55.3870      1.00000
     32     -55.3790      1.00000
     33     -55.3769      1.00000
     34     -55.3687      1.00000
     35     -55.3684      1.00000
     36     -55.3683      1.00000
     37     -55.3634      1.00000
     38     -55.3553      1.00000
     39     -55.3544      1.00000
     40     -55.3506      1.00000
     41     -55.3469      1.00000
     42     -55.3465      1.00000
     43     -55.3176      1.00000
     44     -55.3175      1.00000
     45     -55.3141      1.00000
     46     -55.3131      1.00000
     47     -55.3052      1.00000
     48     -55.3012      1.00000
     49     -55.3011      1.00000
     50     -55.2970      1.00000
     51     -55.2962      1.00000
     52     -55.2955      1.00000
     53     -55.2894      1.00000
     54     -55.2844      1.00000
     55     -55.2744      1.00000
     56     -55.2739      1.00000
     57     -55.2734      1.00000
     58     -55.2704      1.00000
     59     -55.2690      1.00000
     60     -55.2689      1.00000
     61     -55.2567      1.00000
     62     -55.2428      1.00000
     63     -55.2410      1.00000
     64     -55.2361      1.00000
     65     -55.2252      1.00000
     66     -55.2187      1.00000
     67     -55.2180      1.00000
     68     -55.1870      1.00000
     69     -55.1796      1.00000
     70     -51.8484      1.00000
     71     -50.4068      1.00000
     72     -50.1150      1.00000
     73     -18.9809      1.00000
     74     -18.7955      1.00000
     75     -18.7466      1.00000
     76     -18.6133      1.00000
     77     -18.5075      1.00000
     78     -18.4524      1.00000
     79     -18.4243      1.00000
     80     -18.4125      1.00000
     81     -18.3852      1.00000
     82     -18.3677      1.00000
     83     -18.3613      1.00000
     84     -18.3404      1.00000
     85     -18.3223      1.00000
     86     -18.3086      1.00000
     87     -18.2766      1.00000
     88     -18.2527      1.00000
     89     -18.2357      1.00000
     90     -18.2123      1.00000
     91     -18.2069      1.00000
     92     -18.2001      1.00000
     93     -18.1954      1.00000
     94     -18.1809      1.00000
     95     -18.1739      1.00000
     96     -18.1424      1.00000
     97     -18.1297      1.00000
     98     -18.1233      1.00000
     99     -18.0728      1.00000
    100     -16.3142      1.00000
    101     -16.2082      1.00000
    102     -16.1680      1.00000
    103     -16.1533      1.00000
    104     -16.1387      1.00000
    105     -16.1329      1.00000
    106     -16.1222      1.00000
    107     -16.1116      1.00000
    108     -16.1017      1.00000
    109     -16.0862      1.00000
    110     -16.0774      1.00000
    111     -16.0691      1.00000
    112     -16.0628      1.00000
    113     -16.0510      1.00000
    114     -16.0456      1.00000
    115     -16.0404      1.00000
    116     -16.0191      1.00000
    117     -16.0127      1.00000
    118     -16.0074      1.00000
    119     -15.9989      1.00000
    120     -15.9897      1.00000
    121     -15.9782      1.00000
    122     -15.9646      1.00000
    123     -15.9417      1.00000
    124     -15.9261      1.00000
    125     -15.9204      1.00000
    126     -15.8889      1.00000
    127     -15.8499      1.00000
    128     -15.8442      1.00000
    129     -15.8284      1.00000
    130     -15.8177      1.00000
    131     -15.8132      1.00000
    132     -15.8045      1.00000
    133     -15.7940      1.00000
    134     -15.7877      1.00000
    135     -15.7843      1.00000
    136     -15.7745      1.00000
    137     -15.7633      1.00000
    138     -15.7526      1.00000
    139     -15.7481      1.00000
    140     -15.7449      1.00000
    141     -15.7399      1.00000
    142     -15.7368      1.00000
    143     -15.7309      1.00000
    144     -15.7254      1.00000
    145     -15.7219      1.00000
    146     -15.7149      1.00000
    147     -15.7012      1.00000
    148     -15.6951      1.00000
    149     -15.6868      1.00000
    150     -15.6807      1.00000
    151     -15.6718      1.00000
    152     -15.6584      1.00000
    153     -15.6524      1.00000
    154     -15.6463      1.00000
    155     -15.6358      1.00000
    156     -15.6337      1.00000
    157     -15.6299      1.00000
    158     -15.6188      1.00000
    159     -15.6078      1.00000
    160     -15.6057      1.00000
    161     -15.6013      1.00000
    162     -15.5969      1.00000
    163     -15.5891      1.00000
    164     -15.5819      1.00000
    165     -15.5781      1.00000
    166     -15.5724      1.00000
    167     -15.5606      1.00000
    168     -15.5216      1.00000
    169     -15.5028      1.00000
    170     -15.4776      1.00000
    171     -15.4406      1.00000
    172      -7.0177      1.00000
    173      -6.8959      1.00000
    174      -6.8655      1.00000
    175      -6.8549      1.00000
    176      -6.8398      1.00000
    177      -6.8282      1.00000
    178      -6.8163      1.00000
    179      -6.8020      1.00000
    180      -6.7729      1.00000
    181      -6.7369      1.00000
    182      -6.7165      1.00000
    183      -6.7053      1.00000
    184      -6.6283      1.00000
    185      -6.5543      1.00000
    186      -6.5325      1.00000
    187      -6.5246      1.00000
    188      -6.5202      1.00000
    189      -6.4754      1.00000
    190      -6.4233      1.00000
    191      -6.4145      1.00000
    192      -6.3578      1.00000
    193      -6.3482      1.00000
    194      -6.2573      1.00000
    195      -6.1272      1.00000
    196      -6.0294      1.00000
    197      -5.9896      1.00000
    198      -5.9835      1.00000
    199      -5.9771      1.00000
    200      -5.9511      1.00000
    201      -5.9390      1.00000
    202      -5.9254      1.00000
    203      -5.9197      1.00000
    204      -5.8796      1.00000
    205      -5.8568      1.00000
    206      -5.8360      1.00000
    207      -5.8336      1.00000
    208      -5.8134      1.00000
    209      -5.7989      1.00000
    210      -5.7833      1.00000
    211      -5.7757      1.00000
    212      -5.7722      1.00000
    213      -5.7203      1.00000
    214      -5.6684      1.00000
    215      -5.6241      1.00000
    216      -5.5945      1.00000
    217      -5.5696      1.00000
    218      -5.5538      1.00000
    219      -5.4901      1.00000
    220      -5.4762      1.00000
    221      -5.4319      1.00000
    222      -5.3818      1.00000
    223      -5.3144      1.00000
    224      -5.2837      1.00000
    225      -5.2716      1.00000
    226      -5.2511      1.00000
    227      -5.2410      1.00000
    228      -5.2266      1.00000
    229      -5.2202      1.00000
    230      -5.2105      1.00000
    231      -5.2097      1.00000
    232      -5.1983      1.00000
    233      -5.1880      1.00000
    234      -5.1778      1.00000
    235      -5.1726      1.00000
    236      -5.1628      1.00000
    237      -5.1510      1.00000
    238      -5.1430      1.00000
    239      -5.1357      1.00000
    240      -5.1327      1.00000
    241      -5.1225      1.00000
    242      -5.1188      1.00000
    243      -5.1077      1.00000
    244      -5.1015      1.00000
    245      -5.0934      1.00000
    246      -5.0902      1.00000
    247      -5.0839      1.00000
    248      -5.0799      1.00000
    249      -5.0723      1.00000
    250      -5.0666      1.00000
    251      -5.0648      1.00000
    252      -5.0576      1.00000
    253      -5.0503      1.00000
    254      -5.0441      1.00000
    255      -5.0406      1.00000
    256      -5.0360      1.00000
    257      -5.0289      1.00000
    258      -5.0240      1.00000
    259      -5.0155      1.00000
    260      -5.0114      1.00000
    261      -5.0077      1.00000
    262      -5.0004      1.00000
    263      -4.9977      1.00000
    264      -4.9906      1.00000
    265      -4.9881      1.00000
    266      -4.9838      1.00000
    267      -4.9776      1.00000
    268      -4.9712      1.00000
    269      -4.9665      1.00000
    270      -4.9647      1.00000
    271      -4.9594      1.00000
    272      -4.9494      1.00000
    273      -4.9419      1.00000
    274      -4.9375      1.00000
    275      -4.9362      1.00000
    276      -4.9314      1.00000
    277      -4.9215      1.00000
    278      -4.9180      1.00000
    279      -4.9133      1.00000
    280      -4.9047      1.00000
    281      -4.9011      1.00000
    282      -4.8947      1.00000
    283      -4.8877      1.00000
    284      -4.8781      1.00000
    285      -4.8676      1.00000
    286      -4.8622      1.00000
    287      -4.8500      1.00000
    288      -4.8395      1.00000
    289      -4.8297      1.00000
    290      -4.8162      1.00000
    291      -4.8036      1.00000
    292      -4.7652      1.00000
    293      -4.7342      1.00000
    294      -4.7260      1.00000
    295      -4.6781      1.00000
    296      -4.6512      1.00000
    297      -4.6096      1.00000
    298      -4.5687      1.00000
    299      -4.5625      1.00000
    300      -4.5474      1.00000
    301      -4.5050      1.00000
    302      -4.4821      1.00000
    303      -4.3926      1.00000
    304      -4.3419      1.00000
    305      -4.3071      1.00000
    306      -4.2966      1.00000
    307      -4.2338      1.00000
    308      -4.2161      1.00000
    309      -4.1947      1.00000
    310      -4.0805      1.00000
    311      -4.0769      1.00000
    312      -4.0155      1.00000
    313      -3.8466      1.00000
    314      -3.8186      1.00000
    315      -3.7987      1.00000
    316      -3.7161      1.00000
    317      -3.6918      1.00000
    318      -3.6322      1.00000
    319      -3.5861      1.00000
    320      -3.5344      1.00000
    321      -3.4813      1.00000
    322      -3.4668      1.00000
    323      -3.2947      1.00000
    324      -3.2256      1.00000
    325      -3.2140      1.00000
    326      -3.1477      1.00000
    327      -3.1305      1.00000
    328      -3.1108      1.00000
    329      -3.1033      1.00000
    330      -3.0856      1.00000
    331      -3.0648      1.00000
    332      -3.0544      1.00000
    333      -3.0304      1.00000
    334      -3.0131      1.00000
    335      -2.9742      1.00000
    336      -2.9626      1.00000
    337      -2.9587      1.00000
    338      -2.9229      1.00000
    339      -2.9103      1.00000
    340      -2.9029      1.00000
    341      -2.8823      1.00000
    342      -2.8684      1.00000
    343      -2.8522      1.00000
    344      -2.8378      1.00000
    345      -2.8228      1.00000
    346      -2.8102      1.00000
    347      -2.8029      1.00000
    348      -2.7914      1.00000
    349      -2.7799      1.00000
    350      -2.7733      1.00000
    351      -2.7667      1.00000
    352      -2.7606      1.00000
    353      -2.7359      1.00000
    354      -2.7263      1.00000
    355      -2.7197      1.00000
    356      -2.6977      1.00000
    357      -2.6916      1.00000
    358      -2.6838      1.00000
    359      -2.6747      1.00000
    360      -2.6584      1.00000
    361      -2.6308      1.00000
    362      -2.6216      1.00000
    363      -2.6130      1.00000
    364      -2.6062      1.00000
    365      -2.5701      1.00000
    366      -2.5371      1.00000
    367      -2.4458      1.00000
    368      -2.4120      1.00000
    369      -2.3925      1.00000
    370      -2.3497      1.00000
    371      -2.2737      1.00000
    372      -2.2261      1.00000
    373      -2.2203      1.00000
    374      -2.1769      1.00000
    375      -2.1502      1.00000
    376      -2.1302      1.00000
    377      -2.1160      1.00000
    378      -2.1077      1.00000
    379      -2.0628      1.00000
    380      -2.0401      1.00000
    381      -1.9727      1.00000
    382      -1.9084      1.00000
    383      -1.6067      1.00000
    384      -1.4960      1.00000
    385      -1.4479      1.00000
    386      -1.3868      1.00000
    387      -1.3226      1.00000
    388      -1.3060      1.00000
    389      -1.2663      1.00000
    390      -1.2460      1.00000
    391      -1.2306      1.00000
    392      -1.2060      1.00000
    393      -1.1858      1.00000
    394      -1.1381      1.00000
    395      -1.0902      1.00000
    396      -1.0655      1.00000
    397      -1.0180      1.00000
    398      -1.0129      1.00000
    399      -0.9986      1.00000
    400      -0.9759      1.00000
    401      -0.9456      1.00000
    402      -0.9402      1.00000
    403      -0.9146      1.00000
    404      -0.8978      1.00000
    405      -0.8777      1.00000
    406      -0.8650      1.00000
    407      -0.8441      1.00000
    408      -0.8271      1.00000
    409      -0.8046      1.00000
    410      -0.7919      1.00000
    411      -0.7825      1.00000
    412      -0.7582      1.00000
    413      -0.7340      1.00000
    414      -0.6715      1.00000
    415      -0.6607      1.00000
    416      -0.6264      1.00000
    417      -0.6132      1.00000
    418      -0.6046      1.00000
    419      -0.5701      1.00000
    420      -0.5451      1.00000
    421      -0.5384      1.00000
    422      -0.5282      1.00000
    423      -0.5235      1.00000
    424      -0.5087      1.00000
    425      -0.4832      1.00000
    426      -0.4743      1.00000
    427      -0.4522      1.00000
    428      -0.4416      1.00000
    429      -0.4053      1.00000
    430      -0.3715      1.00000
    431      -0.3632      1.00000
    432      -0.3053      1.00000
    433      -0.2962      1.00000
    434      -0.2515      1.00000
    435      -0.2408      1.00000
    436      -0.2161      1.00000
    437      -0.1953      1.00000
    438      -0.1834      1.00000
    439      -0.1647      1.00000
    440      -0.1511      1.00000
    441      -0.1272      1.00000
    442      -0.1241      1.00000
    443      -0.1176      1.00000
    444      -0.1099      1.00000
    445      -0.0989      1.00000
    446      -0.0872      1.00000
    447      -0.0769      1.00000
    448      -0.0551      1.00000
    449      -0.0402      1.00000
    450      -0.0242      1.00000
    451      -0.0133      1.00000
    452       0.0020      1.00000
    453       0.0117      1.00000
    454       0.0315      1.00000
    455       0.0540      1.00000
    456       0.0706      1.00000
    457       0.0856      1.00000
    458       0.1120      1.00000
    459       0.1253      1.00000
    460       0.1484      1.00000
    461       0.1639      1.00000
    462       0.1757      1.00000
    463       0.1875      1.00000
    464       0.1932      1.00000
    465       0.2101      1.00000
    466       0.2176      1.00000
    467       0.2315      1.00000
    468       0.2475      1.00000
    469       0.2504      1.00000
    470       0.2658      1.00000
    471       0.2747      1.00000
    472       0.2853      1.00000
    473       0.2986      1.00000
    474       0.3147      1.00000
    475       0.3311      1.00000
    476       0.3360      1.00000
    477       0.3510      1.00000
    478       0.3656      1.00000
    479       0.3841      1.00000
    480       0.3931      1.00000
    481       0.4243      1.00000
    482       0.4571      1.00000
    483       0.4874      1.00000
    484       0.5400      1.00000
    485       0.5697      1.00000
    486       0.5871      1.00000
    487       0.6009      1.00000
    488       0.6242      1.00000
    489       0.6489      1.00000
    490       0.6826      1.00000
    491       0.6943      1.00000
    492       0.7104      1.00000
    493       0.7216      1.00000
    494       0.7475      1.00000
    495       0.7737      1.00000
    496       0.8172      1.00000
    497       0.8323      1.00000
    498       0.8362      1.00000
    499       0.8458      1.00000
    500       0.8550      1.00000
    501       0.8671      1.00000
    502       0.8827      1.00000
    503       0.8944      1.00000
    504       0.9318      1.00000
    505       0.9545      1.00000
    506       0.9935      1.00000
    507       1.0005      1.00000
    508       1.0197      1.00000
    509       1.0725      1.00000
    510       1.0892      1.00000
    511       1.1032      1.00000
    512       1.1110      1.00000
    513       1.1268      1.00000
    514       1.1329      1.00000
    515       1.1615      1.00000
    516       1.1801      1.00000
    517       1.1841      1.00000
    518       1.2001      1.00000
    519       1.2179      1.00000
    520       1.2269      1.00000
    521       1.2659      1.00000
    522       1.2784      1.00000
    523       1.2871      1.00000
    524       1.2972      1.00000
    525       1.3259      1.00000
    526       1.3313      1.00000
    527       1.3625      1.00000
    528       1.3761      1.00000
    529       1.3851      1.00000
    530       1.4041      1.00000
    531       1.4145      1.00000
    532       1.4183      1.00000
    533       1.4488      1.00000
    534       1.4667      1.00000
    535       1.4811      1.00000
    536       1.4932      1.00000
    537       1.5076      1.00000
    538       1.5194      1.00000
    539       1.5305      1.00000
    540       1.5347      1.00000
    541       1.5787      1.00000
    542       1.6085      1.00000
    543       1.6202      1.00000
    544       1.6343      1.00000
    545       1.6443      1.00000
    546       1.6631      1.00000
    547       1.7029      1.00000
    548       1.7095      1.00000
    549       1.7242      1.00000
    550       1.7315      1.00000
    551       1.7356      1.00000
    552       1.7442      1.00000
    553       1.7621      1.00000
    554       1.7693      1.00000
    555       1.7746      1.00000
    556       1.7893      1.00000
    557       1.8023      1.00000
    558       1.8097      1.00000
    559       1.8208      1.00000
    560       1.8287      1.00000
    561       1.8498      1.00000
    562       1.8584      1.00000
    563       1.8678      1.00000
    564       1.8791      1.00000
    565       1.8930      1.00000
    566       1.9041      1.00000
    567       1.9199      1.00000
    568       1.9320      1.00000
    569       1.9394      1.00000
    570       1.9456      1.00000
    571       1.9520      1.00000
    572       1.9631      1.00000
    573       1.9993      1.00000
    574       2.0109      1.00000
    575       2.0197      1.00000
    576       2.0361      1.00000
    577       2.0634      1.00000
    578       2.2205      1.00000
    579       2.3882      1.00000
    580       8.0848      0.00000
    581       8.7524      0.00000
    582       8.8147      0.00000
    583       8.8268      0.00000
    584       8.9049      0.00000
    585       9.3680      0.00000
    586       9.4294      0.00000
    587       9.4344      0.00000
    588       9.4611      0.00000
    589       9.4980      0.00000
    590       9.9185      0.00000
    591       9.9455      0.00000
    592      10.0506      0.00000
    593      10.1168      0.00000
    594      10.1262      0.00000
    595      10.2032      0.00000
    596      10.3341      0.00000
    597      10.3616      0.00000
    598      10.3780      0.00000
    599      10.4072      0.00000
    600      10.4194      0.00000
    601      10.4584      0.00000
    602      10.5569      0.00000
    603      10.5846      0.00000
    604      10.7225      0.00000
    605      10.7731      0.00000
    606      10.7995      0.00000
    607      10.8219      0.00000
    608      10.8888      0.00000
    609      10.9021      0.00000
    610      10.9269      0.00000
    611      10.9414      0.00000
    612      10.9487      0.00000
    613      10.9782      0.00000
    614      11.0203      0.00000
    615      11.0433      0.00000
    616      11.0672      0.00000
    617      11.0779      0.00000
    618      11.0859      0.00000
    619      11.1014      0.00000
    620      11.1275      0.00000
    621      11.1332      0.00000
    622      11.1531      0.00000
    623      11.1995      0.00000
    624      11.2699      0.00000
    625      11.2864      0.00000
    626      11.3008      0.00000
    627      11.3150      0.00000
    628      11.3299      0.00000
    629      11.3514      0.00000
    630      11.3674      0.00000
    631      11.3938      0.00000
    632      11.4167      0.00000
    633      11.4241      0.00000
    634      11.4651      0.00000
    635      11.4829      0.00000
    636      11.5137      0.00000
    637      11.5308      0.00000
    638      11.5617      0.00000
    639      11.6068      0.00000
    640      11.6258      0.00000
    641      11.6410      0.00000
    642      11.6858      0.00000
    643      11.7208      0.00000
    644      11.7347      0.00000
    645      11.7442      0.00000
    646      11.7591      0.00000
    647      11.7798      0.00000
    648      11.8032      0.00000
    649      11.8196      0.00000
    650      11.8469      0.00000
    651      11.8711      0.00000
    652      11.8965      0.00000
    653      11.9042      0.00000
    654      11.9212      0.00000
    655      11.9384      0.00000
    656      11.9589      0.00000
    657      11.9662      0.00000
    658      11.9927      0.00000
    659      12.0010      0.00000
    660      12.0369      0.00000
    661      12.0808      0.00000
    662      12.1131      0.00000
    663      12.1947      0.00000
    664      12.2136      0.00000
    665      12.2270      0.00000
    666      12.2584      0.00000
    667      12.3361      0.00000
    668      12.4167      0.00000
    669      12.4380      0.00000
    670      12.4732      0.00000
    671      12.4893      0.00000
    672      12.5237      0.00000
    673      12.5549      0.00000
    674      12.5951      0.00000
    675      12.6213      0.00000
    676      12.6354      0.00000
    677      12.6440      0.00000
    678      12.7400      0.00000
    679      12.7666      0.00000
    680      12.7925      0.00000
    681      12.8202      0.00000
    682      12.8263      0.00000
    683      12.8462      0.00000
    684      12.8723      0.00000
    685      12.9260      0.00000
    686      13.1105      0.00000
    687      13.1416      0.00000
    688      13.1878      0.00000
    689      13.2151      0.00000
    690      13.2302      0.00000
    691      13.2487      0.00000
    692      13.2994      0.00000
    693      13.3120      0.00000
    694      13.3536      0.00000
    695      13.3654      0.00000
    696      13.4196      0.00000

 k-point     5 :      -0.3333    0.0000    0.3333
  band No.  band energies     occupation 
      1     -55.6171      1.00000
      2     -55.6145      1.00000
      3     -55.5712      1.00000
      4     -55.5511      1.00000
      5     -55.5371      1.00000
      6     -55.5336      1.00000
      7     -55.5212      1.00000
      8     -55.5205      1.00000
      9     -55.5196      1.00000
     10     -55.5191      1.00000
     11     -55.5119      1.00000
     12     -55.5009      1.00000
     13     -55.4926      1.00000
     14     -55.4904      1.00000
     15     -55.4834      1.00000
     16     -55.4798      1.00000
     17     -55.4664      1.00000
     18     -55.4585      1.00000
     19     -55.4554      1.00000
     20     -55.4533      1.00000
     21     -55.4403      1.00000
     22     -55.4383      1.00000
     23     -55.4375      1.00000
     24     -55.4203      1.00000
     25     -55.4178      1.00000
     26     -55.4158      1.00000
     27     -55.4089      1.00000
     28     -55.4007      1.00000
     29     -55.3992      1.00000
     30     -55.3931      1.00000
     31     -55.3870      1.00000
     32     -55.3790      1.00000
     33     -55.3769      1.00000
     34     -55.3687      1.00000
     35     -55.3684      1.00000
     36     -55.3683      1.00000
     37     -55.3634      1.00000
     38     -55.3553      1.00000
     39     -55.3544      1.00000
     40     -55.3506      1.00000
     41     -55.3469      1.00000
     42     -55.3465      1.00000
     43     -55.3176      1.00000
     44     -55.3175      1.00000
     45     -55.3141      1.00000
     46     -55.3131      1.00000
     47     -55.3052      1.00000
     48     -55.3012      1.00000
     49     -55.3011      1.00000
     50     -55.2970      1.00000
     51     -55.2962      1.00000
     52     -55.2955      1.00000
     53     -55.2894      1.00000
     54     -55.2844      1.00000
     55     -55.2744      1.00000
     56     -55.2739      1.00000
     57     -55.2734      1.00000
     58     -55.2704      1.00000
     59     -55.2690      1.00000
     60     -55.2689      1.00000
     61     -55.2567      1.00000
     62     -55.2428      1.00000
     63     -55.2410      1.00000
     64     -55.2361      1.00000
     65     -55.2252      1.00000
     66     -55.2187      1.00000
     67     -55.2180      1.00000
     68     -55.1870      1.00000
     69     -55.1796      1.00000
     70     -51.8484      1.00000
     71     -50.4068      1.00000
     72     -50.1150      1.00000
     73     -18.9813      1.00000
     74     -18.7951      1.00000
     75     -18.7465      1.00000
     76     -18.6103      1.00000
     77     -18.5096      1.00000
     78     -18.4539      1.00000
     79     -18.4276      1.00000
     80     -18.4131      1.00000
     81     -18.3853      1.00000
     82     -18.3639      1.00000
     83     -18.3616      1.00000
     84     -18.3398      1.00000
     85     -18.3225      1.00000
     86     -18.3092      1.00000
     87     -18.2792      1.00000
     88     -18.2478      1.00000
     89     -18.2358      1.00000
     90     -18.2127      1.00000
     91     -18.2059      1.00000
     92     -18.2017      1.00000
     93     -18.1952      1.00000
     94     -18.1806      1.00000
     95     -18.1706      1.00000
     96     -18.1458      1.00000
     97     -18.1294      1.00000
     98     -18.1245      1.00000
     99     -18.0722      1.00000
    100     -16.3141      1.00000
    101     -16.2032      1.00000
    102     -16.1629      1.00000
    103     -16.1554      1.00000
    104     -16.1490      1.00000
    105     -16.1390      1.00000
    106     -16.1250      1.00000
    107     -16.1074      1.00000
    108     -16.0893      1.00000
    109     -16.0858      1.00000
    110     -16.0838      1.00000
    111     -16.0680      1.00000
    112     -16.0662      1.00000
    113     -16.0505      1.00000
    114     -16.0458      1.00000
    115     -16.0366      1.00000
    116     -16.0234      1.00000
    117     -16.0187      1.00000
    118     -16.0106      1.00000
    119     -16.0018      1.00000
    120     -15.9850      1.00000
    121     -15.9717      1.00000
    122     -15.9615      1.00000
    123     -15.9371      1.00000
    124     -15.9258      1.00000
    125     -15.9158      1.00000
    126     -15.8917      1.00000
    127     -15.8559      1.00000
    128     -15.8412      1.00000
    129     -15.8256      1.00000
    130     -15.8223      1.00000
    131     -15.8149      1.00000
    132     -15.8026      1.00000
    133     -15.7991      1.00000
    134     -15.7835      1.00000
    135     -15.7804      1.00000
    136     -15.7750      1.00000
    137     -15.7643      1.00000
    138     -15.7551      1.00000
    139     -15.7499      1.00000
    140     -15.7460      1.00000
    141     -15.7401      1.00000
    142     -15.7356      1.00000
    143     -15.7317      1.00000
    144     -15.7282      1.00000
    145     -15.7215      1.00000
    146     -15.7127      1.00000
    147     -15.7042      1.00000
    148     -15.6928      1.00000
    149     -15.6854      1.00000
    150     -15.6773      1.00000
    151     -15.6680      1.00000
    152     -15.6642      1.00000
    153     -15.6549      1.00000
    154     -15.6424      1.00000
    155     -15.6397      1.00000
    156     -15.6333      1.00000
    157     -15.6257      1.00000
    158     -15.6199      1.00000
    159     -15.6094      1.00000
    160     -15.6040      1.00000
    161     -15.6012      1.00000
    162     -15.5941      1.00000
    163     -15.5892      1.00000
    164     -15.5849      1.00000
    165     -15.5794      1.00000
    166     -15.5739      1.00000
    167     -15.5584      1.00000
    168     -15.5210      1.00000
    169     -15.5032      1.00000
    170     -15.4778      1.00000
    171     -15.4405      1.00000
    172      -7.0134      1.00000
    173      -6.8987      1.00000
    174      -6.8614      1.00000
    175      -6.8544      1.00000
    176      -6.8414      1.00000
    177      -6.8255      1.00000
    178      -6.8221      1.00000
    179      -6.7971      1.00000
    180      -6.7860      1.00000
    181      -6.7393      1.00000
    182      -6.7271      1.00000
    183      -6.6901      1.00000
    184      -6.6287      1.00000
    185      -6.5531      1.00000
    186      -6.5358      1.00000
    187      -6.5239      1.00000
    188      -6.5154      1.00000
    189      -6.4679      1.00000
    190      -6.4340      1.00000
    191      -6.4087      1.00000
    192      -6.3591      1.00000
    193      -6.3340      1.00000
    194      -6.2798      1.00000
    195      -6.1124      1.00000
    196      -6.0320      1.00000
    197      -5.9934      1.00000
    198      -5.9842      1.00000
    199      -5.9739      1.00000
    200      -5.9492      1.00000
    201      -5.9449      1.00000
    202      -5.9193      1.00000
    203      -5.9124      1.00000
    204      -5.8870      1.00000
    205      -5.8575      1.00000
    206      -5.8398      1.00000
    207      -5.8267      1.00000
    208      -5.8143      1.00000
    209      -5.7996      1.00000
    210      -5.7863      1.00000
    211      -5.7785      1.00000
    212      -5.7729      1.00000
    213      -5.7258      1.00000
    214      -5.6641      1.00000
    215      -5.6210      1.00000
    216      -5.5990      1.00000
    217      -5.5744      1.00000
    218      -5.5470      1.00000
    219      -5.4902      1.00000
    220      -5.4784      1.00000
    221      -5.4298      1.00000
    222      -5.3644      1.00000
    223      -5.3379      1.00000
    224      -5.2792      1.00000
    225      -5.2710      1.00000
    226      -5.2499      1.00000
    227      -5.2380      1.00000
    228      -5.2249      1.00000
    229      -5.2127      1.00000
    230      -5.2107      1.00000
    231      -5.2014      1.00000
    232      -5.1954      1.00000
    233      -5.1916      1.00000
    234      -5.1733      1.00000
    235      -5.1687      1.00000
    236      -5.1655      1.00000
    237      -5.1557      1.00000
    238      -5.1463      1.00000
    239      -5.1394      1.00000
    240      -5.1336      1.00000
    241      -5.1289      1.00000
    242      -5.1202      1.00000
    243      -5.1097      1.00000
    244      -5.1007      1.00000
    245      -5.0958      1.00000
    246      -5.0877      1.00000
    247      -5.0820      1.00000
    248      -5.0751      1.00000
    249      -5.0733      1.00000
    250      -5.0689      1.00000
    251      -5.0630      1.00000
    252      -5.0549      1.00000
    253      -5.0502      1.00000
    254      -5.0443      1.00000
    255      -5.0365      1.00000
    256      -5.0317      1.00000
    257      -5.0274      1.00000
    258      -5.0224      1.00000
    259      -5.0200      1.00000
    260      -5.0142      1.00000
    261      -5.0053      1.00000
    262      -5.0016      1.00000
    263      -5.0000      1.00000
    264      -4.9952      1.00000
    265      -4.9890      1.00000
    266      -4.9872      1.00000
    267      -4.9813      1.00000
    268      -4.9763      1.00000
    269      -4.9643      1.00000
    270      -4.9615      1.00000
    271      -4.9550      1.00000
    272      -4.9520      1.00000
    273      -4.9444      1.00000
    274      -4.9394      1.00000
    275      -4.9338      1.00000
    276      -4.9242      1.00000
    277      -4.9221      1.00000
    278      -4.9206      1.00000
    279      -4.9110      1.00000
    280      -4.9058      1.00000
    281      -4.8989      1.00000
    282      -4.8956      1.00000
    283      -4.8898      1.00000
    284      -4.8799      1.00000
    285      -4.8713      1.00000
    286      -4.8607      1.00000
    287      -4.8516      1.00000
    288      -4.8386      1.00000
    289      -4.8298      1.00000
    290      -4.8147      1.00000
    291      -4.8003      1.00000
    292      -4.7741      1.00000
    293      -4.7587      1.00000
    294      -4.7097      1.00000
    295      -4.6986      1.00000
    296      -4.6394      1.00000
    297      -4.6014      1.00000
    298      -4.5738      1.00000
    299      -4.5511      1.00000
    300      -4.5288      1.00000
    301      -4.5147      1.00000
    302      -4.4676      1.00000
    303      -4.4060      1.00000
    304      -4.3395      1.00000
    305      -4.3021      1.00000
    306      -4.2934      1.00000
    307      -4.2350      1.00000
    308      -4.2181      1.00000
    309      -4.1892      1.00000
    310      -4.0964      1.00000
    311      -4.0826      1.00000
    312      -4.0208      1.00000
    313      -3.8404      1.00000
    314      -3.8204      1.00000
    315      -3.8102      1.00000
    316      -3.7135      1.00000
    317      -3.7024      1.00000
    318      -3.6195      1.00000
    319      -3.5864      1.00000
    320      -3.5097      1.00000
    321      -3.4738      1.00000
    322      -3.4563      1.00000
    323      -3.3427      1.00000
    324      -3.2251      1.00000
    325      -3.1898      1.00000
    326      -3.1466      1.00000
    327      -3.1403      1.00000
    328      -3.0997      1.00000
    329      -3.0946      1.00000
    330      -3.0761      1.00000
    331      -3.0676      1.00000
    332      -3.0559      1.00000
    333      -3.0284      1.00000
    334      -3.0179      1.00000
    335      -2.9981      1.00000
    336      -2.9746      1.00000
    337      -2.9645      1.00000
    338      -2.9215      1.00000
    339      -2.9174      1.00000
    340      -2.8939      1.00000
    341      -2.8658      1.00000
    342      -2.8580      1.00000
    343      -2.8489      1.00000
    344      -2.8351      1.00000
    345      -2.8243      1.00000
    346      -2.8102      1.00000
    347      -2.8031      1.00000
    348      -2.7964      1.00000
    349      -2.7821      1.00000
    350      -2.7722      1.00000
    351      -2.7645      1.00000
    352      -2.7492      1.00000
    353      -2.7437      1.00000
    354      -2.7316      1.00000
    355      -2.7122      1.00000
    356      -2.6963      1.00000
    357      -2.6928      1.00000
    358      -2.6814      1.00000
    359      -2.6687      1.00000
    360      -2.6620      1.00000
    361      -2.6477      1.00000
    362      -2.6311      1.00000
    363      -2.6245      1.00000
    364      -2.5987      1.00000
    365      -2.5684      1.00000
    366      -2.5249      1.00000
    367      -2.4810      1.00000
    368      -2.4113      1.00000
    369      -2.3824      1.00000
    370      -2.3106      1.00000
    371      -2.2822      1.00000
    372      -2.2338      1.00000
    373      -2.2214      1.00000
    374      -2.1791      1.00000
    375      -2.1532      1.00000
    376      -2.1229      1.00000
    377      -2.1075      1.00000
    378      -2.0976      1.00000
    379      -2.0752      1.00000
    380      -2.0472      1.00000
    381      -1.9733      1.00000
    382      -1.9057      1.00000
    383      -1.5978      1.00000
    384      -1.4935      1.00000
    385      -1.4491      1.00000
    386      -1.3842      1.00000
    387      -1.3282      1.00000
    388      -1.3214      1.00000
    389      -1.2751      1.00000
    390      -1.2551      1.00000
    391      -1.2370      1.00000
    392      -1.1877      1.00000
    393      -1.1786      1.00000
    394      -1.1220      1.00000
    395      -1.1007      1.00000
    396      -1.0814      1.00000
    397      -1.0322      1.00000
    398      -1.0239      1.00000
    399      -0.9926      1.00000
    400      -0.9819      1.00000
    401      -0.9546      1.00000
    402      -0.9230      1.00000
    403      -0.9060      1.00000
    404      -0.8874      1.00000
    405      -0.8554      1.00000
    406      -0.8462      1.00000
    407      -0.8345      1.00000
    408      -0.8250      1.00000
    409      -0.8015      1.00000
    410      -0.7876      1.00000
    411      -0.7816      1.00000
    412      -0.7508      1.00000
    413      -0.7368      1.00000
    414      -0.6920      1.00000
    415      -0.6733      1.00000
    416      -0.6544      1.00000
    417      -0.6372      1.00000
    418      -0.6202      1.00000
    419      -0.5712      1.00000
    420      -0.5673      1.00000
    421      -0.5475      1.00000
    422      -0.5230      1.00000
    423      -0.5106      1.00000
    424      -0.5007      1.00000
    425      -0.4884      1.00000
    426      -0.4669      1.00000
    427      -0.4565      1.00000
    428      -0.4135      1.00000
    429      -0.4072      1.00000
    430      -0.3633      1.00000
    431      -0.3396      1.00000
    432      -0.3047      1.00000
    433      -0.2762      1.00000
    434      -0.2562      1.00000
    435      -0.2294      1.00000
    436      -0.2199      1.00000
    437      -0.1983      1.00000
    438      -0.1889      1.00000
    439      -0.1767      1.00000
    440      -0.1626      1.00000
    441      -0.1438      1.00000
    442      -0.1264      1.00000
    443      -0.1184      1.00000
    444      -0.1049      1.00000
    445      -0.0953      1.00000
    446      -0.0795      1.00000
    447      -0.0666      1.00000
    448      -0.0382      1.00000
    449      -0.0291      1.00000
    450      -0.0141      1.00000
    451      -0.0055      1.00000
    452       0.0041      1.00000
    453       0.0113      1.00000
    454       0.0364      1.00000
    455       0.0414      1.00000
    456       0.0563      1.00000
    457       0.0683      1.00000
    458       0.1042      1.00000
    459       0.1307      1.00000
    460       0.1520      1.00000
    461       0.1618      1.00000
    462       0.1783      1.00000
    463       0.1907      1.00000
    464       0.1937      1.00000
    465       0.2026      1.00000
    466       0.2178      1.00000
    467       0.2227      1.00000
    468       0.2343      1.00000
    469       0.2410      1.00000
    470       0.2621      1.00000
    471       0.2645      1.00000
    472       0.2769      1.00000
    473       0.2891      1.00000
    474       0.3138      1.00000
    475       0.3356      1.00000
    476       0.3440      1.00000
    477       0.3520      1.00000
    478       0.3780      1.00000
    479       0.4071      1.00000
    480       0.4195      1.00000
    481       0.4484      1.00000
    482       0.4550      1.00000
    483       0.4935      1.00000
    484       0.5543      1.00000
    485       0.5636      1.00000
    486       0.5795      1.00000
    487       0.5972      1.00000
    488       0.6215      1.00000
    489       0.6325      1.00000
    490       0.6506      1.00000
    491       0.6769      1.00000
    492       0.7074      1.00000
    493       0.7176      1.00000
    494       0.7571      1.00000
    495       0.7895      1.00000
    496       0.8080      1.00000
    497       0.8246      1.00000
    498       0.8407      1.00000
    499       0.8474      1.00000
    500       0.8597      1.00000
    501       0.8765      1.00000
    502       0.8918      1.00000
    503       0.9071      1.00000
    504       0.9236      1.00000
    505       0.9521      1.00000
    506       0.9845      1.00000
    507       0.9986      1.00000
    508       1.0208      1.00000
    509       1.0443      1.00000
    510       1.0910      1.00000
    511       1.1047      1.00000
    512       1.1204      1.00000
    513       1.1276      1.00000
    514       1.1449      1.00000
    515       1.1711      1.00000
    516       1.1765      1.00000
    517       1.1935      1.00000
    518       1.2056      1.00000
    519       1.2163      1.00000
    520       1.2259      1.00000
    521       1.2487      1.00000
    522       1.2610      1.00000
    523       1.2843      1.00000
    524       1.2971      1.00000
    525       1.3183      1.00000
    526       1.3440      1.00000
    527       1.3675      1.00000
    528       1.3794      1.00000
    529       1.3904      1.00000
    530       1.4087      1.00000
    531       1.4151      1.00000
    532       1.4261      1.00000
    533       1.4345      1.00000
    534       1.4680      1.00000
    535       1.4865      1.00000
    536       1.4993      1.00000
    537       1.5057      1.00000
    538       1.5138      1.00000
    539       1.5438      1.00000
    540       1.5536      1.00000
    541       1.5699      1.00000
    542       1.5884      1.00000
    543       1.6121      1.00000
    544       1.6430      1.00000
    545       1.6449      1.00000
    546       1.6636      1.00000
    547       1.6849      1.00000
    548       1.6997      1.00000
    549       1.7090      1.00000
    550       1.7349      1.00000
    551       1.7485      1.00000
    552       1.7589      1.00000
    553       1.7679      1.00000
    554       1.7767      1.00000
    555       1.7819      1.00000
    556       1.7865      1.00000
    557       1.8015      1.00000
    558       1.8120      1.00000
    559       1.8219      1.00000
    560       1.8326      1.00000
    561       1.8471      1.00000
    562       1.8524      1.00000
    563       1.8733      1.00000
    564       1.8821      1.00000
    565       1.8973      1.00000
    566       1.9019      1.00000
    567       1.9114      1.00000
    568       1.9208      1.00000
    569       1.9268      1.00000
    570       1.9403      1.00000
    571       1.9488      1.00000
    572       1.9726      1.00000
    573       1.9979      1.00000
    574       2.0162      1.00000
    575       2.0257      1.00000
    576       2.0409      1.00000
    577       2.0645      1.00000
    578       2.2230      1.00000
    579       2.3834      1.00000
    580       8.0845      0.00000
    581       8.7541      0.00000
    582       8.8181      0.00000
    583       8.8291      0.00000
    584       8.9125      0.00000
    585       9.3449      0.00000
    586       9.4118      0.00000
    587       9.4367      0.00000
    588       9.4751      0.00000
    589       9.4940      0.00000
    590       9.9100      0.00000
    591       9.9426      0.00000
    592      10.0623      0.00000
    593      10.1184      0.00000
    594      10.1434      0.00000
    595      10.2184      0.00000
    596      10.3294      0.00000
    597      10.3620      0.00000
    598      10.3716      0.00000
    599      10.3926      0.00000
    600      10.4163      0.00000
    601      10.4576      0.00000
    602      10.5626      0.00000
    603      10.5871      0.00000
    604      10.7487      0.00000
    605      10.7734      0.00000
    606      10.7966      0.00000
    607      10.8099      0.00000
    608      10.8503      0.00000
    609      10.8927      0.00000
    610      10.9276      0.00000
    611      10.9395      0.00000
    612      10.9552      0.00000
    613      10.9842      0.00000
    614      11.0272      0.00000
    615      11.0311      0.00000
    616      11.0601      0.00000
    617      11.0752      0.00000
    618      11.0996      0.00000
    619      11.1055      0.00000
    620      11.1214      0.00000
    621      11.1628      0.00000
    622      11.1737      0.00000
    623      11.1983      0.00000
    624      11.2523      0.00000
    625      11.2695      0.00000
    626      11.2871      0.00000
    627      11.3086      0.00000
    628      11.3551      0.00000
    629      11.3725      0.00000
    630      11.3831      0.00000
    631      11.4039      0.00000
    632      11.4192      0.00000
    633      11.4379      0.00000
    634      11.4459      0.00000
    635      11.4827      0.00000
    636      11.5054      0.00000
    637      11.5468      0.00000
    638      11.5640      0.00000
    639      11.5899      0.00000
    640      11.6158      0.00000
    641      11.6322      0.00000
    642      11.6499      0.00000
    643      11.7107      0.00000
    644      11.7232      0.00000
    645      11.7459      0.00000
    646      11.7517      0.00000
    647      11.7765      0.00000
    648      11.7918      0.00000
    649      11.8144      0.00000
    650      11.8653      0.00000
    651      11.8792      0.00000
    652      11.8940      0.00000
    653      11.9133      0.00000
    654      11.9351      0.00000
    655      11.9515      0.00000
    656      11.9629      0.00000
    657      11.9821      0.00000
    658      12.0013      0.00000
    659      12.0208      0.00000
    660      12.0275      0.00000
    661      12.1074      0.00000
    662      12.1260      0.00000
    663      12.1696      0.00000
    664      12.1962      0.00000
    665      12.2307      0.00000
    666      12.2442      0.00000
    667      12.3061      0.00000
    668      12.4080      0.00000
    669      12.4316      0.00000
    670      12.4635      0.00000
    671      12.4917      0.00000
    672      12.5210      0.00000
    673      12.5700      0.00000
    674      12.5980      0.00000
    675      12.6244      0.00000
    676      12.6546      0.00000
    677      12.6829      0.00000
    678      12.7352      0.00000
    679      12.7484      0.00000
    680      12.7790      0.00000
    681      12.8001      0.00000
    682      12.8272      0.00000
    683      12.8461      0.00000
    684      12.8936      0.00000
    685      12.9163      0.00000
    686      13.1053      0.00000
    687      13.1671      0.00000
    688      13.1942      0.00000
    689      13.2064      0.00000
    690      13.2407      0.00000
    691      13.2488      0.00000
    692      13.3019      0.00000
    693      13.3140      0.00000
    694      13.3391      0.00000
    695      13.3881      0.00000
    696      13.4289      0.00000
 Fermi energy:         3.6421259277

 spin component 2

 k-point     1 :       0.0000    0.0000    0.0000
  band No.  band energies     occupation 
      1     -50.5753      1.00000
      2     -50.5723      1.00000
      3     -50.5432      1.00000
      4     -50.5241      1.00000
      5     -50.5031      1.00000
      6     -50.4865      1.00000
      7     -50.4756      1.00000
      8     -50.4754      1.00000
      9     -50.4729      1.00000
     10     -50.4717      1.00000
     11     -50.4631      1.00000
     12     -50.4605      1.00000
     13     -50.4596      1.00000
     14     -50.4530      1.00000
     15     -50.4491      1.00000
     16     -50.4435      1.00000
     17     -50.4422      1.00000
     18     -50.4352      1.00000
     19     -50.4328      1.00000
     20     -50.4310      1.00000
     21     -50.4192      1.00000
     22     -50.4109      1.00000
     23     -50.4096      1.00000
     24     -50.4083      1.00000
     25     -50.3949      1.00000
     26     -50.3913      1.00000
     27     -50.3882      1.00000
     28     -50.3845      1.00000
     29     -50.3828      1.00000
     30     -50.3802      1.00000
     31     -50.3725      1.00000
     32     -50.3700      1.00000
     33     -50.3684      1.00000
     34     -50.3675      1.00000
     35     -50.3618      1.00000
     36     -50.3599      1.00000
     37     -50.3525      1.00000
     38     -50.3487      1.00000
     39     -50.3485      1.00000
     40     -50.3482      1.00000
     41     -50.3438      1.00000
     42     -50.3402      1.00000
     43     -50.3279      1.00000
     44     -50.3233      1.00000
     45     -50.3156      1.00000
     46     -50.3099      1.00000
     47     -50.3049      1.00000
     48     -50.3035      1.00000
     49     -50.3013      1.00000
     50     -50.2976      1.00000
     51     -50.2948      1.00000
     52     -50.2939      1.00000
     53     -50.2893      1.00000
     54     -50.2837      1.00000
     55     -50.2825      1.00000
     56     -50.2729      1.00000
     57     -50.2726      1.00000
     58     -50.2724      1.00000
     59     -50.2675      1.00000
     60     -50.2669      1.00000
     61     -50.2464      1.00000
     62     -50.2412      1.00000
     63     -50.2338      1.00000
     64     -50.2338      1.00000
     65     -50.2293      1.00000
     66     -50.2241      1.00000
     67     -50.2099      1.00000
     68     -50.1814      1.00000
     69     -50.1746      1.00000
     70     -46.8883      1.00000
     71     -46.4366      1.00000
     72     -46.3373      1.00000
     73     -18.9441      1.00000
     74     -18.7816      1.00000
     75     -18.7396      1.00000
     76     -18.4627      1.00000
     77     -18.3539      1.00000
     78     -18.2980      1.00000
     79     -18.2540      1.00000
     80     -18.1916      1.00000
     81     -18.1736      1.00000
     82     -18.1403      1.00000
     83     -18.1195      1.00000
     84     -18.1146      1.00000
     85     -18.1087      1.00000
     86     -18.1005      1.00000
     87     -18.0953      1.00000
     88     -18.0805      1.00000
     89     -18.0706      1.00000
     90     -18.0486      1.00000
     91     -18.0373      1.00000
     92     -18.0190      1.00000
     93     -17.9924      1.00000
     94     -17.9781      1.00000
     95     -17.9712      1.00000
     96     -17.9366      1.00000
     97     -17.9304      1.00000
     98     -17.9215      1.00000
     99     -17.8702      1.00000
    100     -16.0783      1.00000
    101     -16.0086      1.00000
    102     -15.9578      1.00000
    103     -15.9550      1.00000
    104     -15.9292      1.00000
    105     -15.9242      1.00000
    106     -15.9173      1.00000
    107     -15.8891      1.00000
    108     -15.8616      1.00000
    109     -15.8448      1.00000
    110     -15.8197      1.00000
    111     -15.8078      1.00000
    112     -15.8002      1.00000
    113     -15.7894      1.00000
    114     -15.7852      1.00000
    115     -15.7797      1.00000
    116     -15.7749      1.00000
    117     -15.7672      1.00000
    118     -15.7636      1.00000
    119     -15.7512      1.00000
    120     -15.7237      1.00000
    121     -15.7015      1.00000
    122     -15.6907      1.00000
    123     -15.6741      1.00000
    124     -15.6607      1.00000
    125     -15.6546      1.00000
    126     -15.6466      1.00000
    127     -15.6344      1.00000
    128     -15.6213      1.00000
    129     -15.6187      1.00000
    130     -15.5990      1.00000
    131     -15.5933      1.00000
    132     -15.5546      1.00000
    133     -15.5521      1.00000
    134     -15.5463      1.00000
    135     -15.5265      1.00000
    136     -15.5129      1.00000
    137     -15.5101      1.00000
    138     -15.4977      1.00000
    139     -15.4896      1.00000
    140     -15.4813      1.00000
    141     -15.4718      1.00000
    142     -15.4677      1.00000
    143     -15.4611      1.00000
    144     -15.4580      1.00000
    145     -15.4550      1.00000
    146     -15.4501      1.00000
    147     -15.4365      1.00000
    148     -15.4274      1.00000
    149     -15.4243      1.00000
    150     -15.4150      1.00000
    151     -15.4088      1.00000
    152     -15.4050      1.00000
    153     -15.3997      1.00000
    154     -15.3925      1.00000
    155     -15.3904      1.00000
    156     -15.3858      1.00000
    157     -15.3778      1.00000
    158     -15.3708      1.00000
    159     -15.3596      1.00000
    160     -15.3454      1.00000
    161     -15.3381      1.00000
    162     -15.3309      1.00000
    163     -15.3222      1.00000
    164     -15.3167      1.00000
    165     -15.3129      1.00000
    166     -15.3041      1.00000
    167     -15.3015      1.00000
    168     -15.2843      1.00000
    169     -15.2466      1.00000
    170     -15.2284      1.00000
    171     -15.1942      1.00000
    172      -6.1897      1.00000
    173      -6.0079      1.00000
    174      -5.9794      1.00000
    175      -5.7344      1.00000
    176      -5.6801      1.00000
    177      -5.6322      1.00000
    178      -5.6161      1.00000
    179      -5.5799      1.00000
    180      -5.5600      1.00000
    181      -5.5371      1.00000
    182      -5.5224      1.00000
    183      -5.5208      1.00000
    184      -5.4680      1.00000
    185      -5.4345      1.00000
    186      -5.4237      1.00000
    187      -5.4188      1.00000
    188      -5.4073      1.00000
    189      -5.4049      1.00000
    190      -5.3842      1.00000
    191      -5.3545      1.00000
    192      -5.3143      1.00000
    193      -5.1914      1.00000
    194      -5.1843      1.00000
    195      -5.1583      1.00000
    196      -4.3388      1.00000
    197      -4.1268      1.00000
    198      -4.0945      1.00000
    199      -3.9831      1.00000
    200      -3.8692      1.00000
    201      -3.8383      1.00000
    202      -3.7459      1.00000
    203      -3.7054      1.00000
    204      -3.6876      1.00000
    205      -3.6707      1.00000
    206      -3.6370      1.00000
    207      -3.6130      1.00000
    208      -3.5956      1.00000
    209      -3.5763      1.00000
    210      -3.5733      1.00000
    211      -3.5514      1.00000
    212      -3.5298      1.00000
    213      -3.5218      1.00000
    214      -3.4892      1.00000
    215      -3.3965      1.00000
    216      -3.3829      1.00000
    217      -3.3794      1.00000
    218      -3.3397      1.00000
    219      -3.3224      1.00000
    220      -3.3128      1.00000
    221      -3.3074      1.00000
    222      -3.2975      1.00000
    223      -3.2927      1.00000
    224      -3.2850      1.00000
    225      -3.2763      1.00000
    226      -3.2569      1.00000
    227      -3.2493      1.00000
    228      -3.2393      1.00000
    229      -3.2301      1.00000
    230      -3.2240      1.00000
    231      -3.2165      1.00000
    232      -3.2113      1.00000
    233      -3.2061      1.00000
    234      -3.2006      1.00000
    235      -3.1865      1.00000
    236      -3.1746      1.00000
    237      -3.1648      1.00000
    238      -3.1075      1.00000
    239      -3.1024      1.00000
    240      -3.0870      1.00000
    241      -3.0717      1.00000
    242      -3.0484      1.00000
    243      -3.0414      1.00000
    244      -3.0046      1.00000
    245      -2.9669      1.00000
    246      -2.9531      1.00000
    247      -2.9368      1.00000
    248      -2.9254      1.00000
    249      -2.9001      1.00000
    250      -2.8839      1.00000
    251      -2.8769      1.00000
    252      -2.7955      1.00000
    253      -2.7854      1.00000
    254      -2.7671      1.00000
    255      -2.7487      1.00000
    256      -2.7375      1.00000
    257      -2.7246      1.00000
    258      -2.7176      1.00000
    259      -2.6336      1.00000
    260      -2.6131      1.00000
    261      -2.5506      1.00000
    262      -2.5144      1.00000
    263      -2.5125      1.00000
    264      -2.4990      1.00000
    265      -2.4898      1.00000
    266      -2.4716      1.00000
    267      -2.4257      1.00000
    268      -2.0399      1.00000
    269      -2.0032      1.00000
    270      -1.9834      1.00000
    271      -1.9752      1.00000
    272      -1.9494      1.00000
    273      -1.8273      1.00000
    274      -1.7952      1.00000
    275      -1.7597      1.00000
    276      -1.7478      1.00000
    277      -1.6959      1.00000
    278      -1.6855      1.00000
    279      -1.6744      1.00000
    280      -1.6673      1.00000
    281      -1.6539      1.00000
    282      -1.6432      1.00000
    283      -1.6251      1.00000
    284      -1.6011      1.00000
    285      -1.5139      1.00000
    286      -1.4927      1.00000
    287      -1.4447      1.00000
    288      -1.3140      1.00000
    289      -1.2666      1.00000
    290      -1.2517      1.00000
    291      -1.2101      1.00000
    292      -1.1878      1.00000
    293      -1.1581      1.00000
    294      -1.1253      1.00000
    295      -1.1184      1.00000
    296      -1.0841      1.00000
    297      -1.0510      1.00000
    298      -1.0288      1.00000
    299      -0.9838      1.00000
    300      -0.9645      1.00000
    301      -0.9537      1.00000
    302      -0.9363      1.00000
    303      -0.9120      1.00000
    304      -0.8961      1.00000
    305      -0.8898      1.00000
    306      -0.8785      1.00000
    307      -0.8639      1.00000
    308      -0.8037      1.00000
    309      -0.7801      1.00000
    310      -0.7751      1.00000
    311      -0.7623      1.00000
    312      -0.7547      1.00000
    313      -0.7421      1.00000
    314      -0.7377      1.00000
    315      -0.7222      1.00000
    316      -0.6955      1.00000
    317      -0.6733      1.00000
    318      -0.6710      1.00000
    319      -0.6449      1.00000
    320      -0.6267      1.00000
    321      -0.6072      1.00000
    322      -0.5975      1.00000
    323      -0.5856      1.00000
    324      -0.5808      1.00000
    325      -0.5768      1.00000
    326      -0.5545      1.00000
    327      -0.5447      1.00000
    328      -0.5214      1.00000
    329      -0.5083      1.00000
    330      -0.4846      1.00000
    331      -0.4507      1.00000
    332      -0.4108      1.00000
    333      -0.3990      1.00000
    334      -0.3787      1.00000
    335      -0.3527      1.00000
    336      -0.2910      1.00000
    337      -0.2316      1.00000
    338      -0.2067      1.00000
    339      -0.1733      1.00000
    340      -0.1211      1.00000
    341      -0.1143      1.00000
    342      -0.1010      1.00000
    343      -0.0860      1.00000
    344      -0.0804      1.00000
    345      -0.0646      1.00000
    346      -0.0341      1.00000
    347      -0.0232      1.00000
    348      -0.0010      1.00000
    349       0.0064      1.00000
    350       0.0167      1.00000
    351       0.0318      1.00000
    352       0.0349      1.00000
    353       0.0440      1.00000
    354       0.0479      1.00000
    355       0.1150      1.00000
    356       0.1159      1.00000
    357       0.1443      1.00000
    358       0.1707      1.00000
    359       0.1854      1.00000
    360       0.1989      1.00000
    361       0.2151      1.00000
    362       0.2338      1.00000
    363       0.2827      1.00000
    364       0.3018      1.00000
    365       0.3065      1.00000
    366       0.3123      1.00000
    367       0.3426      1.00000
    368       0.3453      1.00000
    369       0.3554      1.00000
    370       0.3809      1.00000
    371       0.3839      1.00000
    372       0.3998      1.00000
    373       0.4095      1.00000
    374       0.4136      1.00000
    375       0.4252      1.00000
    376       0.4398      1.00000
    377       0.4760      1.00000
    378       0.4826      1.00000
    379       0.5069      1.00000
    380       0.5163      1.00000
    381       0.5239      1.00000
    382       0.5337      1.00000
    383       0.5534      1.00000
    384       0.5593      1.00000
    385       0.5964      1.00000
    386       0.6015      1.00000
    387       0.6372      1.00000
    388       0.6570      1.00000
    389       0.6588      1.00000
    390       0.6629      1.00000
    391       0.6901      1.00000
    392       0.6963      1.00000
    393       0.7404      1.00000
    394       0.7455      1.00000
    395       0.7543      1.00000
    396       0.7672      1.00000
    397       0.7775      1.00000
    398       0.8079      1.00000
    399       0.8147      1.00000
    400       0.8253      1.00000
    401       0.8403      1.00000
    402       0.8773      1.00000
    403       0.8821      1.00000
    404       0.8981      1.00000
    405       0.9042      1.00000
    406       0.9301      1.00000
    407       0.9890      1.00000
    408       1.0142      1.00000
    409       1.0582      1.00000
    410       1.0672      1.00000
    411       1.0746      1.00000
    412       1.0908      1.00000
    413       1.1265      1.00000
    414       1.1969      1.00000
    415       1.2146      1.00000
    416       1.2323      1.00000
    417       1.2439      1.00000
    418       1.2498      1.00000
    419       1.2627      1.00000
    420       1.2792      1.00000
    421       1.2986      1.00000
    422       1.3019      1.00000
    423       1.3193      1.00000
    424       1.3391      1.00000
    425       1.3422      1.00000
    426       1.3576      1.00000
    427       1.3809      1.00000
    428       1.3895      1.00000
    429       1.4177      1.00000
    430       1.4507      1.00000
    431       1.4547      1.00000
    432       1.4674      1.00000
    433       1.4750      1.00000
    434       1.4846      1.00000
    435       1.5053      1.00000
    436       1.5280      1.00000
    437       1.5360      1.00000
    438       1.5455      1.00000
    439       1.5668      1.00000
    440       1.5746      1.00000
    441       1.6216      1.00000
    442       1.6361      1.00000
    443       1.6587      1.00000
    444       1.6712      1.00000
    445       1.6796      1.00000
    446       1.6906      1.00000
    447       1.7544      1.00000
    448       1.7841      1.00000
    449       1.7954      1.00000
    450       1.8048      1.00000
    451       1.8169      1.00000
    452       1.8296      1.00000
    453       1.8413      1.00000
    454       1.8473      1.00000
    455       1.8674      1.00000
    456       1.8794      1.00000
    457       1.9907      1.00000
    458       2.0315      1.00000
    459       2.0804      1.00000
    460       3.2495      1.00000
    461       4.3242      0.00000
    462       4.3566      0.00000
    463       4.3854      0.00000
    464       4.3957      0.00000
    465       4.4326      0.00000
    466       4.4548      0.00000
    467       4.4662      0.00000
    468       4.4722      0.00000
    469       4.4817      0.00000
    470       4.4843      0.00000
    471       4.4906      0.00000
    472       4.5028      0.00000
    473       4.5277      0.00000
    474       4.5309      0.00000
    475       4.5416      0.00000
    476       4.5510      0.00000
    477       4.5552      0.00000
    478       4.5582      0.00000
    479       4.5712      0.00000
    480       4.5747      0.00000
    481       4.5806      0.00000
    482       4.5830      0.00000
    483       4.5902      0.00000
    484       4.5949      0.00000
    485       4.5987      0.00000
    486       4.6039      0.00000
    487       4.6080      0.00000
    488       4.6117      0.00000
    489       4.6203      0.00000
    490       4.6248      0.00000
    491       4.6269      0.00000
    492       4.6338      0.00000
    493       4.6392      0.00000
    494       4.6415      0.00000
    495       4.6497      0.00000
    496       4.6578      0.00000
    497       4.6684      0.00000
    498       4.6705      0.00000
    499       4.6785      0.00000
    500       4.6863      0.00000
    501       4.6900      0.00000
    502       4.7001      0.00000
    503       4.7026      0.00000
    504       4.7203      0.00000
    505       4.7227      0.00000
    506       4.7241      0.00000
    507       4.7283      0.00000
    508       4.7362      0.00000
    509       4.7538      0.00000
    510       4.7571      0.00000
    511       4.7729      0.00000
    512       4.7750      0.00000
    513       4.7862      0.00000
    514       4.7995      0.00000
    515       4.8009      0.00000
    516       4.8115      0.00000
    517       4.8133      0.00000
    518       4.8209      0.00000
    519       4.8292      0.00000
    520       4.8326      0.00000
    521       4.8476      0.00000
    522       4.8622      0.00000
    523       4.8675      0.00000
    524       4.8896      0.00000
    525       4.8993      0.00000
    526       4.9054      0.00000
    527       4.9196      0.00000
    528       4.9423      0.00000
    529       4.9535      0.00000
    530       4.9640      0.00000
    531       4.9744      0.00000
    532       4.9864      0.00000
    533       5.0042      0.00000
    534       5.0058      0.00000
    535       5.0114      0.00000
    536       5.0531      0.00000
    537       5.0564      0.00000
    538       5.0696      0.00000
    539       5.0948      0.00000
    540       5.1093      0.00000
    541       5.1130      0.00000
    542       5.1374      0.00000
    543       5.1577      0.00000
    544       5.1946      0.00000
    545       5.2090      0.00000
    546       5.2601      0.00000
    547       5.2732      0.00000
    548       5.2773      0.00000
    549       5.2960      0.00000
    550       5.3057      0.00000
    551       5.3339      0.00000
    552       5.3521      0.00000
    553       5.3671      0.00000
    554       5.3919      0.00000
    555       5.3977      0.00000
    556       5.4541      0.00000
    557       5.4917      0.00000
    558       5.5343      0.00000
    559       5.5481      0.00000
    560       5.5591      0.00000
    561       5.5702      0.00000
    562       5.5974      0.00000
    563       5.6497      0.00000
    564       5.6618      0.00000
    565       5.6713      0.00000
    566       5.6896      0.00000
    567       5.6993      0.00000
    568       5.7018      0.00000
    569       5.7151      0.00000
    570       5.7373      0.00000
    571       5.7396      0.00000
    572       5.7504      0.00000
    573       5.7701      0.00000
    574       5.7843      0.00000
    575       5.8099      0.00000
    576       7.8803      0.00000
    577       7.9008      0.00000
    578       7.9881      0.00000
    579       8.3153      0.00000
    580       8.7285      0.00000
    581       8.7634      0.00000
    582       9.1035      0.00000
    583       9.9282      0.00000
    584       9.9602      0.00000
    585      10.1427      0.00000
    586      10.1963      0.00000
    587      10.3554      0.00000
    588      10.4027      0.00000
    589      10.4346      0.00000
    590      10.4682      0.00000
    591      10.4941      0.00000
    592      10.4999      0.00000
    593      10.5305      0.00000
    594      10.5536      0.00000
    595      10.5816      0.00000
    596      10.5930      0.00000
    597      10.7441      0.00000
    598      10.8126      0.00000
    599      10.8604      0.00000
    600      10.9226      0.00000
    601      10.9696      0.00000
    602      10.9737      0.00000
    603      10.9789      0.00000
    604      11.0122      0.00000
    605      11.0363      0.00000
    606      11.1524      0.00000
    607      11.2145      0.00000
    608      11.2441      0.00000
    609      11.2580      0.00000
    610      11.2993      0.00000
    611      11.3349      0.00000
    612      11.3436      0.00000
    613      11.3656      0.00000
    614      11.4060      0.00000
    615      11.4207      0.00000
    616      11.4317      0.00000
    617      11.4799      0.00000
    618      11.5144      0.00000
    619      11.5284      0.00000
    620      11.5658      0.00000
    621      11.5715      0.00000
    622      11.5810      0.00000
    623      11.5960      0.00000
    624      11.6282      0.00000
    625      11.6541      0.00000
    626      11.6633      0.00000
    627      11.6669      0.00000
    628      11.6956      0.00000
    629      11.7021      0.00000
    630      11.7115      0.00000
    631      11.7385      0.00000
    632      11.7538      0.00000
    633      11.7646      0.00000
    634      11.7975      0.00000
    635      11.8209      0.00000
    636      11.8347      0.00000
    637      11.8560      0.00000
    638      11.9141      0.00000
    639      11.9502      0.00000
    640      11.9869      0.00000
    641      11.9938      0.00000
    642      12.0073      0.00000
    643      12.0123      0.00000
    644      12.0169      0.00000
    645      12.0540      0.00000
    646      12.1012      0.00000
    647      12.1238      0.00000
    648      12.1549      0.00000
    649      12.1792      0.00000
    650      12.2097      0.00000
    651      12.2338      0.00000
    652      12.2628      0.00000
    653      12.2793      0.00000
    654      12.3149      0.00000
    655      12.3425      0.00000
    656      12.3775      0.00000
    657      12.4002      0.00000
    658      12.4448      0.00000
    659      12.4553      0.00000
    660      12.4660      0.00000
    661      12.4898      0.00000
    662      12.5000      0.00000
    663      12.5088      0.00000
    664      12.5207      0.00000
    665      12.5348      0.00000
    666      12.5752      0.00000
    667      12.7127      0.00000
    668      12.7609      0.00000
    669      12.7795      0.00000
    670      12.7882      0.00000
    671      12.8028      0.00000
    672      12.8123      0.00000
    673      12.8299      0.00000
    674      12.8742      0.00000
    675      12.8997      0.00000
    676      12.9429      0.00000
    677      12.9909      0.00000
    678      13.1490      0.00000
    679      13.2021      0.00000
    680      13.2831      0.00000
    681      13.2982      0.00000
    682      13.3158      0.00000
    683      13.3547      0.00000
    684      13.3878      0.00000
    685      13.4028      0.00000
    686      13.4220      0.00000
    687      13.4728      0.00000
    688      13.5013      0.00000
    689      13.5264      0.00000
    690      13.5683      0.00000
    691      13.6201      0.00000
    692      13.6563      0.00000
    693      13.7413      0.00000
    694      13.8147      0.00000
    695      13.8264      0.00000
    696      13.8982      0.00000

 k-point     2 :       0.3333    0.0000    0.0000
  band No.  band energies     occupation 
      1     -50.5753      1.00000
      2     -50.5723      1.00000
      3     -50.5432      1.00000
      4     -50.5241      1.00000
      5     -50.5031      1.00000
      6     -50.4865      1.00000
      7     -50.4756      1.00000
      8     -50.4754      1.00000
      9     -50.4729      1.00000
     10     -50.4717      1.00000
     11     -50.4631      1.00000
     12     -50.4605      1.00000
     13     -50.4596      1.00000
     14     -50.4530      1.00000
     15     -50.4491      1.00000
     16     -50.4435      1.00000
     17     -50.4422      1.00000
     18     -50.4352      1.00000
     19     -50.4328      1.00000
     20     -50.4310      1.00000
     21     -50.4192      1.00000
     22     -50.4109      1.00000
     23     -50.4096      1.00000
     24     -50.4083      1.00000
     25     -50.3949      1.00000
     26     -50.3913      1.00000
     27     -50.3882      1.00000
     28     -50.3845      1.00000
     29     -50.3828      1.00000
     30     -50.3802      1.00000
     31     -50.3725      1.00000
     32     -50.3700      1.00000
     33     -50.3684      1.00000
     34     -50.3675      1.00000
     35     -50.3618      1.00000
     36     -50.3599      1.00000
     37     -50.3525      1.00000
     38     -50.3487      1.00000
     39     -50.3485      1.00000
     40     -50.3482      1.00000
     41     -50.3438      1.00000
     42     -50.3402      1.00000
     43     -50.3279      1.00000
     44     -50.3233      1.00000
     45     -50.3156      1.00000
     46     -50.3099      1.00000
     47     -50.3049      1.00000
     48     -50.3035      1.00000
     49     -50.3013      1.00000
     50     -50.2976      1.00000
     51     -50.2948      1.00000
     52     -50.2939      1.00000
     53     -50.2893      1.00000
     54     -50.2837      1.00000
     55     -50.2825      1.00000
     56     -50.2729      1.00000
     57     -50.2726      1.00000
     58     -50.2724      1.00000
     59     -50.2675      1.00000
     60     -50.2669      1.00000
     61     -50.2464      1.00000
     62     -50.2412      1.00000
     63     -50.2338      1.00000
     64     -50.2338      1.00000
     65     -50.2293      1.00000
     66     -50.2241      1.00000
     67     -50.2099      1.00000
     68     -50.1814      1.00000
     69     -50.1746      1.00000
     70     -46.8883      1.00000
     71     -46.4366      1.00000
     72     -46.3373      1.00000
     73     -18.9442      1.00000
     74     -18.7818      1.00000
     75     -18.7396      1.00000
     76     -18.4361      1.00000
     77     -18.3410      1.00000
     78     -18.2892      1.00000
     79     -18.2526      1.00000
     80     -18.2107      1.00000
     81     -18.1901      1.00000
     82     -18.1720      1.00000
     83     -18.1673      1.00000
     84     -18.1359      1.00000
     85     -18.1105      1.00000
     86     -18.1073      1.00000
     87     -18.1056      1.00000
     88     -18.0571      1.00000
     89     -18.0431      1.00000
     90     -18.0349      1.00000
     91     -18.0119      1.00000
     92     -18.0021      1.00000
     93     -17.9942      1.00000
     94     -17.9737      1.00000
     95     -17.9692      1.00000
     96     -17.9377      1.00000
     97     -17.9320      1.00000
     98     -17.9268      1.00000
     99     -17.8733      1.00000
    100     -16.0687      1.00000
    101     -16.0009      1.00000
    102     -15.9440      1.00000
    103     -15.9379      1.00000
    104     -15.9183      1.00000
    105     -15.9103      1.00000
    106     -15.8948      1.00000
    107     -15.8693      1.00000
    108     -15.8532      1.00000
    109     -15.8382      1.00000
    110     -15.8321      1.00000
    111     -15.8262      1.00000
    112     -15.8200      1.00000
    113     -15.8089      1.00000
    114     -15.7968      1.00000
    115     -15.7872      1.00000
    116     -15.7794      1.00000
    117     -15.7769      1.00000
    118     -15.7620      1.00000
    119     -15.7570      1.00000
    120     -15.7304      1.00000
    121     -15.7107      1.00000
    122     -15.7027      1.00000
    123     -15.6878      1.00000
    124     -15.6693      1.00000
    125     -15.6516      1.00000
    126     -15.6397      1.00000
    127     -15.6174      1.00000
    128     -15.6018      1.00000
    129     -15.5906      1.00000
    130     -15.5766      1.00000
    131     -15.5684      1.00000
    132     -15.5554      1.00000
    133     -15.5493      1.00000
    134     -15.5382      1.00000
    135     -15.5265      1.00000
    136     -15.5182      1.00000
    137     -15.5137      1.00000
    138     -15.5114      1.00000
    139     -15.5047      1.00000
    140     -15.5019      1.00000
    141     -15.4984      1.00000
    142     -15.4896      1.00000
    143     -15.4812      1.00000
    144     -15.4772      1.00000
    145     -15.4725      1.00000
    146     -15.4591      1.00000
    147     -15.4385      1.00000
    148     -15.4350      1.00000
    149     -15.4209      1.00000
    150     -15.4152      1.00000
    151     -15.4136      1.00000
    152     -15.3923      1.00000
    153     -15.3897      1.00000
    154     -15.3830      1.00000
    155     -15.3797      1.00000
    156     -15.3764      1.00000
    157     -15.3671      1.00000
    158     -15.3495      1.00000
    159     -15.3465      1.00000
    160     -15.3440      1.00000
    161     -15.3355      1.00000
    162     -15.3302      1.00000
    163     -15.3248      1.00000
    164     -15.3203      1.00000
    165     -15.3159      1.00000
    166     -15.3087      1.00000
    167     -15.3029      1.00000
    168     -15.2867      1.00000
    169     -15.2487      1.00000
    170     -15.2287      1.00000
    171     -15.1943      1.00000
    172      -6.0748      1.00000
    173      -5.8944      1.00000
    174      -5.8618      1.00000
    175      -5.7819      1.00000
    176      -5.7158      1.00000
    177      -5.6645      1.00000
    178      -5.6106      1.00000
    179      -5.5911      1.00000
    180      -5.5782      1.00000
    181      -5.5598      1.00000
    182      -5.5420      1.00000
    183      -5.5255      1.00000
    184      -5.4971      1.00000
    185      -5.4680      1.00000
    186      -5.4455      1.00000
    187      -5.4231      1.00000
    188      -5.4173      1.00000
    189      -5.4090      1.00000
    190      -5.3955      1.00000
    191      -5.3621      1.00000
    192      -5.3223      1.00000
    193      -5.2600      1.00000
    194      -5.2542      1.00000
    195      -5.1726      1.00000
    196      -4.2805      1.00000
    197      -4.0933      1.00000
    198      -4.0412      1.00000
    199      -4.0327      1.00000
    200      -3.9076      1.00000
    201      -3.8830      1.00000
    202      -3.7124      1.00000
    203      -3.6731      1.00000
    204      -3.6492      1.00000
    205      -3.6383      1.00000
    206      -3.6044      1.00000
    207      -3.5833      1.00000
    208      -3.5707      1.00000
    209      -3.5467      1.00000
    210      -3.5360      1.00000
    211      -3.5251      1.00000
    212      -3.5166      1.00000
    213      -3.4840      1.00000
    214      -3.4588      1.00000
    215      -3.4516      1.00000
    216      -3.4419      1.00000
    217      -3.4115      1.00000
    218      -3.4013      1.00000
    219      -3.3921      1.00000
    220      -3.3782      1.00000
    221      -3.3684      1.00000
    222      -3.3542      1.00000
    223      -3.3338      1.00000
    224      -3.2859      1.00000
    225      -3.2702      1.00000
    226      -3.2566      1.00000
    227      -3.2436      1.00000
    228      -3.2400      1.00000
    229      -3.2248      1.00000
    230      -3.2181      1.00000
    231      -3.2155      1.00000
    232      -3.2123      1.00000
    233      -3.1949      1.00000
    234      -3.1836      1.00000
    235      -3.1484      1.00000
    236      -3.1307      1.00000
    237      -3.0843      1.00000
    238      -3.0692      1.00000
    239      -3.0548      1.00000
    240      -3.0420      1.00000
    241      -3.0339      1.00000
    242      -3.0252      1.00000
    243      -3.0044      1.00000
    244      -2.9780      1.00000
    245      -2.9573      1.00000
    246      -2.9514      1.00000
    247      -2.9293      1.00000
    248      -2.9173      1.00000
    249      -2.9104      1.00000
    250      -2.8945      1.00000
    251      -2.8662      1.00000
    252      -2.8612      1.00000
    253      -2.8202      1.00000
    254      -2.7933      1.00000
    255      -2.7703      1.00000
    256      -2.7281      1.00000
    257      -2.7091      1.00000
    258      -2.6991      1.00000
    259      -2.6768      1.00000
    260      -2.6712      1.00000
    261      -2.6524      1.00000
    262      -2.6498      1.00000
    263      -2.6246      1.00000
    264      -2.5906      1.00000
    265      -2.5764      1.00000
    266      -2.5528      1.00000
    267      -2.4268      1.00000
    268      -1.9990      1.00000
    269      -1.9397      1.00000
    270      -1.9228      1.00000
    271      -1.8977      1.00000
    272      -1.8798      1.00000
    273      -1.7993      1.00000
    274      -1.7738      1.00000
    275      -1.7547      1.00000
    276      -1.7388      1.00000
    277      -1.7306      1.00000
    278      -1.7101      1.00000
    279      -1.7006      1.00000
    280      -1.6940      1.00000
    281      -1.6815      1.00000
    282      -1.6233      1.00000
    283      -1.6220      1.00000
    284      -1.5707      1.00000
    285      -1.4828      1.00000
    286      -1.4306      1.00000
    287      -1.4117      1.00000
    288      -1.2629      1.00000
    289      -1.2427      1.00000
    290      -1.1857      1.00000
    291      -1.1791      1.00000
    292      -1.1565      1.00000
    293      -1.1477      1.00000
    294      -1.0722      1.00000
    295      -1.0615      1.00000
    296      -1.0369      1.00000
    297      -0.9941      1.00000
    298      -0.9813      1.00000
    299      -0.9678      1.00000
    300      -0.9381      1.00000
    301      -0.9201      1.00000
    302      -0.9058      1.00000
    303      -0.8903      1.00000
    304      -0.8784      1.00000
    305      -0.8655      1.00000
    306      -0.8552      1.00000
    307      -0.8360      1.00000
    308      -0.8262      1.00000
    309      -0.8117      1.00000
    310      -0.7849      1.00000
    311      -0.7630      1.00000
    312      -0.7461      1.00000
    313      -0.7312      1.00000
    314      -0.7176      1.00000
    315      -0.7088      1.00000
    316      -0.6562      1.00000
    317      -0.6359      1.00000
    318      -0.6310      1.00000
    319      -0.6160      1.00000
    320      -0.6011      1.00000
    321      -0.5971      1.00000
    322      -0.5715      1.00000
    323      -0.5630      1.00000
    324      -0.5431      1.00000
    325      -0.5379      1.00000
    326      -0.5133      1.00000
    327      -0.5027      1.00000
    328      -0.4644      1.00000
    329      -0.4567      1.00000
    330      -0.4470      1.00000
    331      -0.4407      1.00000
    332      -0.4337      1.00000
    333      -0.3999      1.00000
    334      -0.3752      1.00000
    335      -0.3321      1.00000
    336      -0.2999      1.00000
    337      -0.2483      1.00000
    338      -0.2134      1.00000
    339      -0.1789      1.00000
    340      -0.1671      1.00000
    341      -0.1557      1.00000
    342      -0.1472      1.00000
    343      -0.1438      1.00000
    344      -0.1189      1.00000
    345      -0.1106      1.00000
    346      -0.1015      1.00000
    347      -0.0946      1.00000
    348      -0.0882      1.00000
    349      -0.0672      1.00000
    350      -0.0516      1.00000
    351      -0.0409      1.00000
    352      -0.0082      1.00000
    353       0.0145      1.00000
    354       0.0353      1.00000
    355       0.0478      1.00000
    356       0.0515      1.00000
    357       0.0817      1.00000
    358       0.0922      1.00000
    359       0.1044      1.00000
    360       0.1095      1.00000
    361       0.1308      1.00000
    362       0.1326      1.00000
    363       0.1743      1.00000
    364       0.2141      1.00000
    365       0.2472      1.00000
    366       0.2856      1.00000
    367       0.3060      1.00000
    368       0.3276      1.00000
    369       0.3349      1.00000
    370       0.3415      1.00000
    371       0.3591      1.00000
    372       0.3681      1.00000
    373       0.3780      1.00000
    374       0.3914      1.00000
    375       0.4070      1.00000
    376       0.4129      1.00000
    377       0.4344      1.00000
    378       0.4419      1.00000
    379       0.4462      1.00000
    380       0.4590      1.00000
    381       0.4894      1.00000
    382       0.5244      1.00000
    383       0.5478      1.00000
    384       0.5576      1.00000
    385       0.5648      1.00000
    386       0.5967      1.00000
    387       0.6174      1.00000
    388       0.6968      1.00000
    389       0.7208      1.00000
    390       0.7720      1.00000
    391       0.7746      1.00000
    392       0.8022      1.00000
    393       0.8187      1.00000
    394       0.8270      1.00000
    395       0.8366      1.00000
    396       0.8460      1.00000
    397       0.8595      1.00000
    398       0.8806      1.00000
    399       0.8899      1.00000
    400       0.9148      1.00000
    401       0.9389      1.00000
    402       0.9815      1.00000
    403       0.9932      1.00000
    404       1.0066      1.00000
    405       1.0140      1.00000
    406       1.0268      1.00000
    407       1.0274      1.00000
    408       1.0400      1.00000
    409       1.0679      1.00000
    410       1.0957      1.00000
    411       1.1131      1.00000
    412       1.1258      1.00000
    413       1.1603      1.00000
    414       1.1734      1.00000
    415       1.1959      1.00000
    416       1.2074      1.00000
    417       1.2198      1.00000
    418       1.2290      1.00000
    419       1.2387      1.00000
    420       1.2433      1.00000
    421       1.2560      1.00000
    422       1.2721      1.00000
    423       1.3118      1.00000
    424       1.3251      1.00000
    425       1.3359      1.00000
    426       1.3526      1.00000
    427       1.3659      1.00000
    428       1.3907      1.00000
    429       1.4205      1.00000
    430       1.4258      1.00000
    431       1.4371      1.00000
    432       1.4444      1.00000
    433       1.4553      1.00000
    434       1.4652      1.00000
    435       1.4852      1.00000
    436       1.5152      1.00000
    437       1.5249      1.00000
    438       1.5363      1.00000
    439       1.5587      1.00000
    440       1.5894      1.00000
    441       1.6024      1.00000
    442       1.6273      1.00000
    443       1.6546      1.00000
    444       1.6588      1.00000
    445       1.6668      1.00000
    446       1.6757      1.00000
    447       1.6851      1.00000
    448       1.6920      1.00000
    449       1.7265      1.00000
    450       1.7956      1.00000
    451       1.8110      1.00000
    452       1.8181      1.00000
    453       1.8266      1.00000
    454       1.8557      1.00000
    455       1.8686      1.00000
    456       1.9237      1.00000
    457       2.0167      1.00000
    458       2.0317      1.00000
    459       2.0895      1.00000
    460       3.2505      1.00000
    461       4.3326      0.00000
    462       4.3668      0.00000
    463       4.3830      0.00000
    464       4.3943      0.00000
    465       4.4278      0.00000
    466       4.4612      0.00000
    467       4.4705      0.00000
    468       4.4751      0.00000
    469       4.4806      0.00000
    470       4.4932      0.00000
    471       4.4962      0.00000
    472       4.5057      0.00000
    473       4.5082      0.00000
    474       4.5204      0.00000
    475       4.5251      0.00000
    476       4.5384      0.00000
    477       4.5620      0.00000
    478       4.5681      0.00000
    479       4.5707      0.00000
    480       4.5785      0.00000
    481       4.5823      0.00000
    482       4.5864      0.00000
    483       4.5985      0.00000
    484       4.5995      0.00000
    485       4.6041      0.00000
    486       4.6109      0.00000
    487       4.6196      0.00000
    488       4.6212      0.00000
    489       4.6276      0.00000
    490       4.6342      0.00000
    491       4.6402      0.00000
    492       4.6470      0.00000
    493       4.6487      0.00000
    494       4.6577      0.00000
    495       4.6605      0.00000
    496       4.6670      0.00000
    497       4.6773      0.00000
    498       4.6789      0.00000
    499       4.6819      0.00000
    500       4.6871      0.00000
    501       4.6943      0.00000
    502       4.7032      0.00000
    503       4.7099      0.00000
    504       4.7169      0.00000
    505       4.7226      0.00000
    506       4.7307      0.00000
    507       4.7352      0.00000
    508       4.7413      0.00000
    509       4.7507      0.00000
    510       4.7613      0.00000
    511       4.7663      0.00000
    512       4.7751      0.00000
    513       4.7809      0.00000
    514       4.7919      0.00000
    515       4.7956      0.00000
    516       4.8048      0.00000
    517       4.8091      0.00000
    518       4.8160      0.00000
    519       4.8175      0.00000
    520       4.8249      0.00000
    521       4.8408      0.00000
    522       4.8517      0.00000
    523       4.8688      0.00000
    524       4.8793      0.00000
    525       4.8868      0.00000
    526       4.8989      0.00000
    527       4.9075      0.00000
    528       4.9121      0.00000
    529       4.9260      0.00000
    530       4.9372      0.00000
    531       4.9489      0.00000
    532       4.9580      0.00000
    533       4.9780      0.00000
    534       4.9996      0.00000
    535       5.0021      0.00000
    536       5.0356      0.00000
    537       5.0431      0.00000
    538       5.0751      0.00000
    539       5.0865      0.00000
    540       5.0921      0.00000
    541       5.0983      0.00000
    542       5.1175      0.00000
    543       5.1693      0.00000
    544       5.1931      0.00000
    545       5.2243      0.00000
    546       5.2508      0.00000
    547       5.2612      0.00000
    548       5.2832      0.00000
    549       5.2915      0.00000
    550       5.3003      0.00000
    551       5.3204      0.00000
    552       5.3416      0.00000
    553       5.3523      0.00000
    554       5.3867      0.00000
    555       5.4666      0.00000
    556       5.4800      0.00000
    557       5.5083      0.00000
    558       5.5520      0.00000
    559       5.5716      0.00000
    560       5.5785      0.00000
    561       5.5925      0.00000
    562       5.6104      0.00000
    563       5.6266      0.00000
    564       5.6419      0.00000
    565       5.6784      0.00000
    566       5.6818      0.00000
    567       5.6930      0.00000
    568       5.7042      0.00000
    569       5.7130      0.00000
    570       5.7352      0.00000
    571       5.7481      0.00000
    572       5.7534      0.00000
    573       5.7744      0.00000
    574       5.7943      0.00000
    575       5.8177      0.00000
    576       7.8819      0.00000
    577       7.9896      0.00000
    578       8.1877      0.00000
    579       8.3747      0.00000
    580       8.9857      0.00000
    581       9.0247      0.00000
    582       9.1131      0.00000
    583       9.1850      0.00000
    584       9.7080      0.00000
    585       9.7368      0.00000
    586      10.0131      0.00000
    587      10.0339      0.00000
    588      10.4492      0.00000
    589      10.4922      0.00000
    590      10.5118      0.00000
    591      10.5286      0.00000
    592      10.5412      0.00000
    593      10.5586      0.00000
    594      10.7360      0.00000
    595      10.7933      0.00000
    596      10.8090      0.00000
    597      10.8647      0.00000
    598      10.9256      0.00000
    599      10.9537      0.00000
    600      10.9561      0.00000
    601      10.9744      0.00000
    602      10.9924      0.00000
    603      11.0968      0.00000
    604      11.1034      0.00000
    605      11.1210      0.00000
    606      11.1777      0.00000
    607      11.1949      0.00000
    608      11.2511      0.00000
    609      11.2644      0.00000
    610      11.2964      0.00000
    611      11.3061      0.00000
    612      11.3131      0.00000
    613      11.3736      0.00000
    614      11.4056      0.00000
    615      11.4270      0.00000
    616      11.4747      0.00000
    617      11.5034      0.00000
    618      11.5291      0.00000
    619      11.5454      0.00000
    620      11.5498      0.00000
    621      11.5666      0.00000
    622      11.5854      0.00000
    623      11.5994      0.00000
    624      11.6122      0.00000
    625      11.6224      0.00000
    626      11.6349      0.00000
    627      11.6436      0.00000
    628      11.6540      0.00000
    629      11.6649      0.00000
    630      11.6795      0.00000
    631      11.6895      0.00000
    632      11.7169      0.00000
    633      11.7619      0.00000
    634      11.7930      0.00000
    635      11.8231      0.00000
    636      11.8333      0.00000
    637      11.9088      0.00000
    638      11.9271      0.00000
    639      11.9499      0.00000
    640      11.9631      0.00000
    641      11.9720      0.00000
    642      12.0053      0.00000
    643      12.0214      0.00000
    644      12.0286      0.00000
    645      12.0757      0.00000
    646      12.1450      0.00000
    647      12.1681      0.00000
    648      12.1969      0.00000
    649      12.2247      0.00000
    650      12.2395      0.00000
    651      12.2505      0.00000
    652      12.2653      0.00000
    653      12.2771      0.00000
    654      12.2948      0.00000
    655      12.2998      0.00000
    656      12.3182      0.00000
    657      12.3653      0.00000
    658      12.3883      0.00000
    659      12.4034      0.00000
    660      12.4109      0.00000
    661      12.4379      0.00000
    662      12.4801      0.00000
    663      12.5201      0.00000
    664      12.5324      0.00000
    665      12.5609      0.00000
    666      12.5735      0.00000
    667      12.5814      0.00000
    668      12.6114      0.00000
    669      12.6326      0.00000
    670      12.7959      0.00000
    671      12.8303      0.00000
    672      12.8986      0.00000
    673      12.9093      0.00000
    674      12.9618      0.00000
    675      13.1492      0.00000
    676      13.1840      0.00000
    677      13.2063      0.00000
    678      13.2184      0.00000
    679      13.2342      0.00000
    680      13.2802      0.00000
    681      13.3007      0.00000
    682      13.3435      0.00000
    683      13.3866      0.00000
    684      13.3997      0.00000
    685      13.4373      0.00000
    686      13.4549      0.00000
    687      13.4673      0.00000
    688      13.4869      0.00000
    689      13.5009      0.00000
    690      13.5441      0.00000
    691      13.5769      0.00000
    692      13.5873      0.00000
    693      13.5993      0.00000
    694      13.6968      0.00000
    695      13.7625      0.00000
    696      13.8552      0.00000

 k-point     3 :       0.0000    0.0000    0.3333
  band No.  band energies     occupation 
      1     -50.5753      1.00000
      2     -50.5723      1.00000
      3     -50.5432      1.00000
      4     -50.5241      1.00000
      5     -50.5031      1.00000
      6     -50.4865      1.00000
      7     -50.4756      1.00000
      8     -50.4754      1.00000
      9     -50.4729      1.00000
     10     -50.4717      1.00000
     11     -50.4631      1.00000
     12     -50.4605      1.00000
     13     -50.4596      1.00000
     14     -50.4530      1.00000
     15     -50.4491      1.00000
     16     -50.4435      1.00000
     17     -50.4422      1.00000
     18     -50.4352      1.00000
     19     -50.4328      1.00000
     20     -50.4310      1.00000
     21     -50.4192      1.00000
     22     -50.4109      1.00000
     23     -50.4096      1.00000
     24     -50.4083      1.00000
     25     -50.3949      1.00000
     26     -50.3913      1.00000
     27     -50.3882      1.00000
     28     -50.3845      1.00000
     29     -50.3828      1.00000
     30     -50.3802      1.00000
     31     -50.3725      1.00000
     32     -50.3700      1.00000
     33     -50.3684      1.00000
     34     -50.3675      1.00000
     35     -50.3618      1.00000
     36     -50.3599      1.00000
     37     -50.3525      1.00000
     38     -50.3487      1.00000
     39     -50.3485      1.00000
     40     -50.3482      1.00000
     41     -50.3438      1.00000
     42     -50.3402      1.00000
     43     -50.3279      1.00000
     44     -50.3233      1.00000
     45     -50.3156      1.00000
     46     -50.3099      1.00000
     47     -50.3049      1.00000
     48     -50.3035      1.00000
     49     -50.3013      1.00000
     50     -50.2976      1.00000
     51     -50.2948      1.00000
     52     -50.2939      1.00000
     53     -50.2893      1.00000
     54     -50.2837      1.00000
     55     -50.2825      1.00000
     56     -50.2730      1.00000
     57     -50.2726      1.00000
     58     -50.2724      1.00000
     59     -50.2675      1.00000
     60     -50.2669      1.00000
     61     -50.2464      1.00000
     62     -50.2412      1.00000
     63     -50.2338      1.00000
     64     -50.2338      1.00000
     65     -50.2293      1.00000
     66     -50.2241      1.00000
     67     -50.2099      1.00000
     68     -50.1814      1.00000
     69     -50.1746      1.00000
     70     -46.8883      1.00000
     71     -46.4366      1.00000
     72     -46.3373      1.00000
     73     -18.9456      1.00000
     74     -18.7822      1.00000
     75     -18.7395      1.00000
     76     -18.4346      1.00000
     77     -18.3430      1.00000
     78     -18.2885      1.00000
     79     -18.2603      1.00000
     80     -18.2318      1.00000
     81     -18.1902      1.00000
     82     -18.1562      1.00000
     83     -18.1213      1.00000
     84     -18.1156      1.00000
     85     -18.1034      1.00000
     86     -18.0875      1.00000
     87     -18.0726      1.00000
     88     -18.0624      1.00000
     89     -18.0532      1.00000
     90     -18.0370      1.00000
     91     -18.0277      1.00000
     92     -18.0173      1.00000
     93     -18.0085      1.00000
     94     -18.0036      1.00000
     95     -17.9877      1.00000
     96     -17.9715      1.00000
     97     -17.9313      1.00000
     98     -17.9132      1.00000
     99     -17.8656      1.00000
    100     -16.0682      1.00000
    101     -15.9832      1.00000
    102     -15.9380      1.00000
    103     -15.9356      1.00000
    104     -15.9259      1.00000
    105     -15.9113      1.00000
    106     -15.9002      1.00000
    107     -15.8888      1.00000
    108     -15.8719      1.00000
    109     -15.8608      1.00000
    110     -15.8431      1.00000
    111     -15.8222      1.00000
    112     -15.8107      1.00000
    113     -15.7781      1.00000
    114     -15.7632      1.00000
    115     -15.7617      1.00000
    116     -15.7531      1.00000
    117     -15.7419      1.00000
    118     -15.7324      1.00000
    119     -15.7301      1.00000
    120     -15.7219      1.00000
    121     -15.7057      1.00000
    122     -15.7019      1.00000
    123     -15.6833      1.00000
    124     -15.6708      1.00000
    125     -15.6639      1.00000
    126     -15.6552      1.00000
    127     -15.6460      1.00000
    128     -15.6352      1.00000
    129     -15.6222      1.00000
    130     -15.6092      1.00000
    131     -15.5991      1.00000
    132     -15.5851      1.00000
    133     -15.5727      1.00000
    134     -15.5516      1.00000
    135     -15.5401      1.00000
    136     -15.5143      1.00000
    137     -15.5072      1.00000
    138     -15.4979      1.00000
    139     -15.4908      1.00000
    140     -15.4803      1.00000
    141     -15.4741      1.00000
    142     -15.4695      1.00000
    143     -15.4664      1.00000
    144     -15.4595      1.00000
    145     -15.4540      1.00000
    146     -15.4485      1.00000
    147     -15.4346      1.00000
    148     -15.4292      1.00000
    149     -15.4212      1.00000
    150     -15.4157      1.00000
    151     -15.4072      1.00000
    152     -15.4034      1.00000
    153     -15.3999      1.00000
    154     -15.3974      1.00000
    155     -15.3901      1.00000
    156     -15.3835      1.00000
    157     -15.3760      1.00000
    158     -15.3617      1.00000
    159     -15.3551      1.00000
    160     -15.3465      1.00000
    161     -15.3396      1.00000
    162     -15.3312      1.00000
    163     -15.3258      1.00000
    164     -15.3214      1.00000
    165     -15.3148      1.00000
    166     -15.3050      1.00000
    167     -15.3019      1.00000
    168     -15.2862      1.00000
    169     -15.2495      1.00000
    170     -15.2290      1.00000
    171     -15.1940      1.00000
    172      -6.1275      1.00000
    173      -5.9715      1.00000
    174      -5.9234      1.00000
    175      -5.9085      1.00000
    176      -5.7773      1.00000
    177      -5.7506      1.00000
    178      -5.6123      1.00000
    179      -5.5730      1.00000
    180      -5.5464      1.00000
    181      -5.5107      1.00000
    182      -5.4930      1.00000
    183      -5.4828      1.00000
    184      -5.4645      1.00000
    185      -5.4297      1.00000
    186      -5.4085      1.00000
    187      -5.3899      1.00000
    188      -5.3710      1.00000
    189      -5.3618      1.00000
    190      -5.3246      1.00000
    191      -5.3075      1.00000
    192      -5.2793      1.00000
    193      -5.2097      1.00000
    194      -5.2018      1.00000
    195      -5.1748      1.00000
    196      -4.2107      1.00000
    197      -4.0291      1.00000
    198      -3.9901      1.00000
    199      -3.9607      1.00000
    200      -3.9106      1.00000
    201      -3.8177      1.00000
    202      -3.7913      1.00000
    203      -3.7714      1.00000
    204      -3.7421      1.00000
    205      -3.6682      1.00000
    206      -3.6443      1.00000
    207      -3.6231      1.00000
    208      -3.6046      1.00000
    209      -3.5874      1.00000
    210      -3.5557      1.00000
    211      -3.5512      1.00000
    212      -3.5306      1.00000
    213      -3.5196      1.00000
    214      -3.5087      1.00000
    215      -3.5014      1.00000
    216      -3.4850      1.00000
    217      -3.4754      1.00000
    218      -3.4352      1.00000
    219      -3.3820      1.00000
    220      -3.3586      1.00000
    221      -3.3439      1.00000
    222      -3.3259      1.00000
    223      -3.3086      1.00000
    224      -3.3029      1.00000
    225      -3.2882      1.00000
    226      -3.2789      1.00000
    227      -3.2734      1.00000
    228      -3.2611      1.00000
    229      -3.2464      1.00000
    230      -3.2374      1.00000
    231      -3.2237      1.00000
    232      -3.1780      1.00000
    233      -3.1555      1.00000
    234      -3.1438      1.00000
    235      -3.1136      1.00000
    236      -3.1064      1.00000
    237      -3.0616      1.00000
    238      -3.0489      1.00000
    239      -3.0424      1.00000
    240      -3.0229      1.00000
    241      -2.9893      1.00000
    242      -2.9600      1.00000
    243      -2.9504      1.00000
    244      -2.9426      1.00000
    245      -2.9338      1.00000
    246      -2.9203      1.00000
    247      -2.9139      1.00000
    248      -2.9073      1.00000
    249      -2.8981      1.00000
    250      -2.8752      1.00000
    251      -2.8597      1.00000
    252      -2.8463      1.00000
    253      -2.8373      1.00000
    254      -2.8251      1.00000
    255      -2.8139      1.00000
    256      -2.7872      1.00000
    257      -2.7728      1.00000
    258      -2.7159      1.00000
    259      -2.6857      1.00000
    260      -2.6790      1.00000
    261      -2.6635      1.00000
    262      -2.6602      1.00000
    263      -2.6399      1.00000
    264      -2.6329      1.00000
    265      -2.5803      1.00000
    266      -2.5665      1.00000
    267      -2.4498      1.00000
    268      -2.0301      1.00000
    269      -1.9827      1.00000
    270      -1.9465      1.00000
    271      -1.9232      1.00000
    272      -1.8385      1.00000
    273      -1.8026      1.00000
    274      -1.7944      1.00000
    275      -1.7796      1.00000
    276      -1.7411      1.00000
    277      -1.7240      1.00000
    278      -1.7103      1.00000
    279      -1.6969      1.00000
    280      -1.6875      1.00000
    281      -1.6000      1.00000
    282      -1.5768      1.00000
    283      -1.5471      1.00000
    284      -1.5232      1.00000
    285      -1.4678      1.00000
    286      -1.4413      1.00000
    287      -1.3708      1.00000
    288      -1.3194      1.00000
    289      -1.2908      1.00000
    290      -1.2794      1.00000
    291      -1.2125      1.00000
    292      -1.1933      1.00000
    293      -1.1665      1.00000
    294      -1.1602      1.00000
    295      -1.1445      1.00000
    296      -1.1403      1.00000
    297      -1.1350      1.00000
    298      -1.1022      1.00000
    299      -1.0561      1.00000
    300      -0.9987      1.00000
    301      -0.9855      1.00000
    302      -0.9538      1.00000
    303      -0.8859      1.00000
    304      -0.8706      1.00000
    305      -0.8572      1.00000
    306      -0.8420      1.00000
    307      -0.8311      1.00000
    308      -0.8241      1.00000
    309      -0.8161      1.00000
    310      -0.8039      1.00000
    311      -0.7776      1.00000
    312      -0.7667      1.00000
    313      -0.7465      1.00000
    314      -0.7310      1.00000
    315      -0.7143      1.00000
    316      -0.6944      1.00000
    317      -0.6913      1.00000
    318      -0.6751      1.00000
    319      -0.6627      1.00000
    320      -0.6304      1.00000
    321      -0.6238      1.00000
    322      -0.6003      1.00000
    323      -0.5908      1.00000
    324      -0.5784      1.00000
    325      -0.5645      1.00000
    326      -0.5263      1.00000
    327      -0.4631      1.00000
    328      -0.4478      1.00000
    329      -0.4358      1.00000
    330      -0.4297      1.00000
    331      -0.4187      1.00000
    332      -0.3895      1.00000
    333      -0.3843      1.00000
    334      -0.3451      1.00000
    335      -0.3222      1.00000
    336      -0.2451      1.00000
    337      -0.2217      1.00000
    338      -0.1845      1.00000
    339      -0.1364      1.00000
    340      -0.1285      1.00000
    341      -0.1224      1.00000
    342      -0.1119      1.00000
    343      -0.0899      1.00000
    344      -0.0828      1.00000
    345      -0.0649      1.00000
    346      -0.0491      1.00000
    347      -0.0235      1.00000
    348      -0.0057      1.00000
    349       0.0186      1.00000
    350       0.0497      1.00000
    351       0.0654      1.00000
    352       0.0962      1.00000
    353       0.1058      1.00000
    354       0.1197      1.00000
    355       0.1407      1.00000
    356       0.1545      1.00000
    357       0.1718      1.00000
    358       0.2147      1.00000
    359       0.2264      1.00000
    360       0.2531      1.00000
    361       0.2600      1.00000
    362       0.2645      1.00000
    363       0.2790      1.00000
    364       0.3007      1.00000
    365       0.3113      1.00000
    366       0.3270      1.00000
    367       0.3364      1.00000
    368       0.3509      1.00000
    369       0.3566      1.00000
    370       0.3646      1.00000
    371       0.3806      1.00000
    372       0.3880      1.00000
    373       0.3982      1.00000
    374       0.4055      1.00000
    375       0.4254      1.00000
    376       0.4456      1.00000
    377       0.4706      1.00000
    378       0.4836      1.00000
    379       0.4954      1.00000
    380       0.4987      1.00000
    381       0.5362      1.00000
    382       0.5393      1.00000
    383       0.5573      1.00000
    384       0.5648      1.00000
    385       0.5750      1.00000
    386       0.5882      1.00000
    387       0.6103      1.00000
    388       0.6169      1.00000
    389       0.6541      1.00000
    390       0.6785      1.00000
    391       0.6929      1.00000
    392       0.7133      1.00000
    393       0.7580      1.00000
    394       0.7776      1.00000
    395       0.8009      1.00000
    396       0.8121      1.00000
    397       0.8238      1.00000
    398       0.8417      1.00000
    399       0.8572      1.00000
    400       0.8700      1.00000
    401       0.8792      1.00000
    402       0.8986      1.00000
    403       0.9157      1.00000
    404       0.9255      1.00000
    405       0.9287      1.00000
    406       0.9337      1.00000
    407       0.9520      1.00000
    408       0.9883      1.00000
    409       1.0465      1.00000
    410       1.0639      1.00000
    411       1.1089      1.00000
    412       1.1250      1.00000
    413       1.1558      1.00000
    414       1.1666      1.00000
    415       1.1856      1.00000
    416       1.2001      1.00000
    417       1.2129      1.00000
    418       1.2262      1.00000
    419       1.2436      1.00000
    420       1.2606      1.00000
    421       1.2674      1.00000
    422       1.2880      1.00000
    423       1.3085      1.00000
    424       1.3314      1.00000
    425       1.3521      1.00000
    426       1.3601      1.00000
    427       1.3731      1.00000
    428       1.3770      1.00000
    429       1.3845      1.00000
    430       1.4043      1.00000
    431       1.4138      1.00000
    432       1.4351      1.00000
    433       1.4501      1.00000
    434       1.4606      1.00000
    435       1.4720      1.00000
    436       1.4812      1.00000
    437       1.4935      1.00000
    438       1.4986      1.00000
    439       1.5082      1.00000
    440       1.5319      1.00000
    441       1.5462      1.00000
    442       1.5509      1.00000
    443       1.5822      1.00000
    444       1.6686      1.00000
    445       1.6933      1.00000
    446       1.7219      1.00000
    447       1.7657      1.00000
    448       1.7758      1.00000
    449       1.7818      1.00000
    450       1.7942      1.00000
    451       1.8139      1.00000
    452       1.8401      1.00000
    453       1.8453      1.00000
    454       1.8703      1.00000
    455       1.8782      1.00000
    456       1.8938      1.00000
    457       1.9752      1.00000
    458       1.9920      1.00000
    459       2.0354      1.00000
    460       3.2426      1.00000
    461       4.3182      0.00000
    462       4.3629      0.00000
    463       4.3810      0.00000
    464       4.3963      0.00000
    465       4.4026      0.00000
    466       4.4095      0.00000
    467       4.4124      0.00000
    468       4.4442      0.00000
    469       4.4501      0.00000
    470       4.4590      0.00000
    471       4.4693      0.00000
    472       4.4780      0.00000
    473       4.4838      0.00000
    474       4.4992      0.00000
    475       4.5281      0.00000
    476       4.5340      0.00000
    477       4.5382      0.00000
    478       4.5441      0.00000
    479       4.5470      0.00000
    480       4.5582      0.00000
    481       4.5628      0.00000
    482       4.5700      0.00000
    483       4.5777      0.00000
    484       4.5828      0.00000
    485       4.5920      0.00000
    486       4.5957      0.00000
    487       4.6054      0.00000
    488       4.6145      0.00000
    489       4.6302      0.00000
    490       4.6356      0.00000
    491       4.6398      0.00000
    492       4.6450      0.00000
    493       4.6567      0.00000
    494       4.6694      0.00000
    495       4.6766      0.00000
    496       4.6843      0.00000
    497       4.6897      0.00000
    498       4.6920      0.00000
    499       4.6964      0.00000
    500       4.7013      0.00000
    501       4.7128      0.00000
    502       4.7209      0.00000
    503       4.7231      0.00000
    504       4.7263      0.00000
    505       4.7322      0.00000
    506       4.7446      0.00000
    507       4.7478      0.00000
    508       4.7530      0.00000
    509       4.7595      0.00000
    510       4.7647      0.00000
    511       4.7775      0.00000
    512       4.7797      0.00000
    513       4.8001      0.00000
    514       4.8156      0.00000
    515       4.8200      0.00000
    516       4.8281      0.00000
    517       4.8332      0.00000
    518       4.8421      0.00000
    519       4.8519      0.00000
    520       4.8705      0.00000
    521       4.8771      0.00000
    522       4.8813      0.00000
    523       4.8952      0.00000
    524       4.9054      0.00000
    525       4.9169      0.00000
    526       4.9266      0.00000
    527       4.9360      0.00000
    528       4.9420      0.00000
    529       4.9590      0.00000
    530       4.9701      0.00000
    531       4.9834      0.00000
    532       5.0024      0.00000
    533       5.0059      0.00000
    534       5.0144      0.00000
    535       5.0340      0.00000
    536       5.0465      0.00000
    537       5.0617      0.00000
    538       5.0642      0.00000
    539       5.0698      0.00000
    540       5.0789      0.00000
    541       5.1031      0.00000
    542       5.1137      0.00000
    543       5.1553      0.00000
    544       5.1565      0.00000
    545       5.1891      0.00000
    546       5.1964      0.00000
    547       5.2075      0.00000
    548       5.2165      0.00000
    549       5.2574      0.00000
    550       5.3227      0.00000
    551       5.3453      0.00000
    552       5.3855      0.00000
    553       5.4058      0.00000
    554       5.4343      0.00000
    555       5.4486      0.00000
    556       5.4622      0.00000
    557       5.4819      0.00000
    558       5.5210      0.00000
    559       5.5542      0.00000
    560       5.5927      0.00000
    561       5.6134      0.00000
    562       5.6207      0.00000
    563       5.6287      0.00000
    564       5.6517      0.00000
    565       5.6667      0.00000
    566       5.6725      0.00000
    567       5.6851      0.00000
    568       5.6986      0.00000
    569       5.7040      0.00000
    570       5.7129      0.00000
    571       5.7287      0.00000
    572       5.7490      0.00000
    573       5.7556      0.00000
    574       5.7785      0.00000
    575       5.7921      0.00000
    576       7.8831      0.00000
    577       7.9861      0.00000
    578       8.1882      0.00000
    579       8.3617      0.00000
    580       8.9955      0.00000
    581       9.0316      0.00000
    582       9.0808      0.00000
    583       9.1162      0.00000
    584       9.6967      0.00000
    585       9.7339      0.00000
    586      10.2784      0.00000
    587      10.3090      0.00000
    588      10.4539      0.00000
    589      10.4776      0.00000
    590      10.5132      0.00000
    591      10.5731      0.00000
    592      10.6675      0.00000
    593      10.6895      0.00000
    594      10.6971      0.00000
    595      10.7213      0.00000
    596      10.7303      0.00000
    597      10.7448      0.00000
    598      10.7672      0.00000
    599      10.7852      0.00000
    600      10.9241      0.00000
    601      10.9606      0.00000
    602      11.0000      0.00000
    603      11.0234      0.00000
    604      11.0279      0.00000
    605      11.0489      0.00000
    606      11.0768      0.00000
    607      11.1059      0.00000
    608      11.1298      0.00000
    609      11.1634      0.00000
    610      11.2141      0.00000
    611      11.2296      0.00000
    612      11.2591      0.00000
    613      11.2712      0.00000
    614      11.2946      0.00000
    615      11.3030      0.00000
    616      11.3736      0.00000
    617      11.4050      0.00000
    618      11.4223      0.00000
    619      11.4648      0.00000
    620      11.4822      0.00000
    621      11.5125      0.00000
    622      11.5318      0.00000
    623      11.5527      0.00000
    624      11.5723      0.00000
    625      11.5910      0.00000
    626      11.6275      0.00000
    627      11.6458      0.00000
    628      11.6644      0.00000
    629      11.7171      0.00000
    630      11.7560      0.00000
    631      11.7959      0.00000
    632      11.8341      0.00000
    633      11.8451      0.00000
    634      11.8631      0.00000
    635      11.8675      0.00000
    636      11.8945      0.00000
    637      11.9897      0.00000
    638      12.0079      0.00000
    639      12.0109      0.00000
    640      12.0350      0.00000
    641      12.0529      0.00000
    642      12.0761      0.00000
    643      12.0984      0.00000
    644      12.1250      0.00000
    645      12.1739      0.00000
    646      12.1863      0.00000
    647      12.2081      0.00000
    648      12.2228      0.00000
    649      12.2601      0.00000
    650      12.2649      0.00000
    651      12.2798      0.00000
    652      12.2928      0.00000
    653      12.3045      0.00000
    654      12.3321      0.00000
    655      12.3699      0.00000
    656      12.4015      0.00000
    657      12.4165      0.00000
    658      12.4503      0.00000
    659      12.4736      0.00000
    660      12.4882      0.00000
    661      12.4951      0.00000
    662      12.5220      0.00000
    663      12.5325      0.00000
    664      12.5855      0.00000
    665      12.6429      0.00000
    666      12.6686      0.00000
    667      12.7126      0.00000
    668      12.7900      0.00000
    669      12.8334      0.00000
    670      12.8754      0.00000
    671      12.8934      0.00000
    672      12.9160      0.00000
    673      12.9394      0.00000
    674      12.9506      0.00000
    675      12.9789      0.00000
    676      13.0042      0.00000
    677      13.0550      0.00000
    678      13.0708      0.00000
    679      13.2197      0.00000
    680      13.2510      0.00000
    681      13.2757      0.00000
    682      13.2986      0.00000
    683      13.3490      0.00000
    684      13.3793      0.00000
    685      13.3952      0.00000
    686      13.4094      0.00000
    687      13.4218      0.00000
    688      13.4490      0.00000
    689      13.4697      0.00000
    690      13.4895      0.00000
    691      13.5290      0.00000
    692      13.5408      0.00000
    693      13.6327      0.00000
    694      13.6686      0.00000
    695      13.7041      0.00000
    696      13.7701      0.00000

 k-point     4 :       0.3333    0.0000    0.3333
  band No.  band energies     occupation 
      1     -50.5753      1.00000
      2     -50.5723      1.00000
      3     -50.5432      1.00000
      4     -50.5241      1.00000
      5     -50.5031      1.00000
      6     -50.4865      1.00000
      7     -50.4756      1.00000
      8     -50.4754      1.00000
      9     -50.4729      1.00000
     10     -50.4717      1.00000
     11     -50.4631      1.00000
     12     -50.4605      1.00000
     13     -50.4596      1.00000
     14     -50.4530      1.00000
     15     -50.4491      1.00000
     16     -50.4435      1.00000
     17     -50.4422      1.00000
     18     -50.4352      1.00000
     19     -50.4328      1.00000
     20     -50.4310      1.00000
     21     -50.4192      1.00000
     22     -50.4109      1.00000
     23     -50.4096      1.00000
     24     -50.4083      1.00000
     25     -50.3949      1.00000
     26     -50.3913      1.00000
     27     -50.3882      1.00000
     28     -50.3845      1.00000
     29     -50.3828      1.00000
     30     -50.3802      1.00000
     31     -50.3725      1.00000
     32     -50.3700      1.00000
     33     -50.3684      1.00000
     34     -50.3675      1.00000
     35     -50.3618      1.00000
     36     -50.3599      1.00000
     37     -50.3525      1.00000
     38     -50.3487      1.00000
     39     -50.3485      1.00000
     40     -50.3482      1.00000
     41     -50.3438      1.00000
     42     -50.3402      1.00000
     43     -50.3279      1.00000
     44     -50.3233      1.00000
     45     -50.3156      1.00000
     46     -50.3099      1.00000
     47     -50.3049      1.00000
     48     -50.3035      1.00000
     49     -50.3013      1.00000
     50     -50.2976      1.00000
     51     -50.2948      1.00000
     52     -50.2939      1.00000
     53     -50.2893      1.00000
     54     -50.2837      1.00000
     55     -50.2825      1.00000
     56     -50.2729      1.00000
     57     -50.2726      1.00000
     58     -50.2724      1.00000
     59     -50.2675      1.00000
     60     -50.2669      1.00000
     61     -50.2464      1.00000
     62     -50.2412      1.00000
     63     -50.2338      1.00000
     64     -50.2338      1.00000
     65     -50.2293      1.00000
     66     -50.2241      1.00000
     67     -50.2099      1.00000
     68     -50.1814      1.00000
     69     -50.1746      1.00000
     70     -46.8883      1.00000
     71     -46.4366      1.00000
     72     -46.3373      1.00000
     73     -18.9454      1.00000
     74     -18.7824      1.00000
     75     -18.7394      1.00000
     76     -18.4201      1.00000
     77     -18.3252      1.00000
     78     -18.2698      1.00000
     79     -18.2361      1.00000
     80     -18.2263      1.00000
     81     -18.1968      1.00000
     82     -18.1808      1.00000
     83     -18.1699      1.00000
     84     -18.1509      1.00000
     85     -18.1377      1.00000
     86     -18.1129      1.00000
     87     -18.0906      1.00000
     88     -18.0603      1.00000
     89     -18.0393      1.00000
     90     -18.0193      1.00000
     91     -18.0129      1.00000
     92     -18.0049      1.00000
     93     -17.9990      1.00000
     94     -17.9875      1.00000
     95     -17.9768      1.00000
     96     -17.9470      1.00000
     97     -17.9298      1.00000
     98     -17.9241      1.00000
     99     -17.8715      1.00000
    100     -16.0579      1.00000
    101     -15.9752      1.00000
    102     -15.9270      1.00000
    103     -15.9081      1.00000
    104     -15.9011      1.00000
    105     -15.8946      1.00000
    106     -15.8786      1.00000
    107     -15.8681      1.00000
    108     -15.8578      1.00000
    109     -15.8432      1.00000
    110     -15.8337      1.00000
    111     -15.8208      1.00000
    112     -15.8166      1.00000
    113     -15.8061      1.00000
    114     -15.7945      1.00000
    115     -15.7928      1.00000
    116     -15.7730      1.00000
    117     -15.7622      1.00000
    118     -15.7581      1.00000
    119     -15.7476      1.00000
    120     -15.7395      1.00000
    121     -15.7317      1.00000
    122     -15.7262      1.00000
    123     -15.6982      1.00000
    124     -15.6775      1.00000
    125     -15.6676      1.00000
    126     -15.6556      1.00000
    127     -15.6175      1.00000
    128     -15.6076      1.00000
    129     -15.5868      1.00000
    130     -15.5754      1.00000
    131     -15.5723      1.00000
    132     -15.5582      1.00000
    133     -15.5532      1.00000
    134     -15.5415      1.00000
    135     -15.5361      1.00000
    136     -15.5213      1.00000
    137     -15.5173      1.00000
    138     -15.5100      1.00000
    139     -15.5039      1.00000
    140     -15.5006      1.00000
    141     -15.4980      1.00000
    142     -15.4940      1.00000
    143     -15.4818      1.00000
    144     -15.4761      1.00000
    145     -15.4677      1.00000
    146     -15.4650      1.00000
    147     -15.4433      1.00000
    148     -15.4379      1.00000
    149     -15.4228      1.00000
    150     -15.4188      1.00000
    151     -15.4117      1.00000
    152     -15.3967      1.00000
    153     -15.3838      1.00000
    154     -15.3818      1.00000
    155     -15.3732      1.00000
    156     -15.3647      1.00000
    157     -15.3596      1.00000
    158     -15.3565      1.00000
    159     -15.3533      1.00000
    160     -15.3473      1.00000
    161     -15.3385      1.00000
    162     -15.3343      1.00000
    163     -15.3272      1.00000
    164     -15.3218      1.00000
    165     -15.3166      1.00000
    166     -15.3087      1.00000
    167     -15.3031      1.00000
    168     -15.2881      1.00000
    169     -15.2516      1.00000
    170     -15.2292      1.00000
    171     -15.1941      1.00000
    172      -6.0267      1.00000
    173      -5.8838      1.00000
    174      -5.8386      1.00000
    175      -5.8135      1.00000
    176      -5.7534      1.00000
    177      -5.7149      1.00000
    178      -5.6844      1.00000
    179      -5.6559      1.00000
    180      -5.5854      1.00000
    181      -5.5497      1.00000
    182      -5.5480      1.00000
    183      -5.5174      1.00000
    184      -5.4806      1.00000
    185      -5.4691      1.00000
    186      -5.4196      1.00000
    187      -5.4143      1.00000
    188      -5.3822      1.00000
    189      -5.3436      1.00000
    190      -5.3250      1.00000
    191      -5.3188      1.00000
    192      -5.2914      1.00000
    193      -5.2549      1.00000
    194      -5.2506      1.00000
    195      -5.1763      1.00000
    196      -4.1858      1.00000
    197      -4.0286      1.00000
    198      -3.9734      1.00000
    199      -3.9490      1.00000
    200      -3.9180      1.00000
    201      -3.8412      1.00000
    202      -3.8232      1.00000
    203      -3.7900      1.00000
    204      -3.7340      1.00000
    205      -3.7260      1.00000
    206      -3.6323      1.00000
    207      -3.6280      1.00000
    208      -3.5932      1.00000
    209      -3.5738      1.00000
    210      -3.5174      1.00000
    211      -3.5065      1.00000
    212      -3.4938      1.00000
    213      -3.4808      1.00000
    214      -3.4689      1.00000
    215      -3.4575      1.00000
    216      -3.4512      1.00000
    217      -3.4277      1.00000
    218      -3.4006      1.00000
    219      -3.3703      1.00000
    220      -3.3577      1.00000
    221      -3.3458      1.00000
    222      -3.3295      1.00000
    223      -3.3162      1.00000
    224      -3.2915      1.00000
    225      -3.2769      1.00000
    226      -3.2571      1.00000
    227      -3.2489      1.00000
    228      -3.2236      1.00000
    229      -3.2132      1.00000
    230      -3.1988      1.00000
    231      -3.1869      1.00000
    232      -3.1751      1.00000
    233      -3.1586      1.00000
    234      -3.1513      1.00000
    235      -3.1361      1.00000
    236      -3.1313      1.00000
    237      -3.1224      1.00000
    238      -3.0979      1.00000
    239      -3.0782      1.00000
    240      -3.0642      1.00000
    241      -3.0581      1.00000
    242      -3.0412      1.00000
    243      -3.0226      1.00000
    244      -2.9909      1.00000
    245      -2.9746      1.00000
    246      -2.9710      1.00000
    247      -2.9487      1.00000
    248      -2.9370      1.00000
    249      -2.9015      1.00000
    250      -2.8775      1.00000
    251      -2.8691      1.00000
    252      -2.8530      1.00000
    253      -2.8106      1.00000
    254      -2.8076      1.00000
    255      -2.7932      1.00000
    256      -2.7772      1.00000
    257      -2.7545      1.00000
    258      -2.7441      1.00000
    259      -2.7311      1.00000
    260      -2.7078      1.00000
    261      -2.6841      1.00000
    262      -2.6770      1.00000
    263      -2.6628      1.00000
    264      -2.6213      1.00000
    265      -2.5989      1.00000
    266      -2.5760      1.00000
    267      -2.4814      1.00000
    268      -1.9995      1.00000
    269      -1.9414      1.00000
    270      -1.9151      1.00000
    271      -1.8843      1.00000
    272      -1.8331      1.00000
    273      -1.8094      1.00000
    274      -1.8028      1.00000
    275      -1.7941      1.00000
    276      -1.7815      1.00000
    277      -1.7463      1.00000
    278      -1.7124      1.00000
    279      -1.6925      1.00000
    280      -1.6567      1.00000
    281      -1.6150      1.00000
    282      -1.5434      1.00000
    283      -1.5300      1.00000
    284      -1.4917      1.00000
    285      -1.4663      1.00000
    286      -1.4039      1.00000
    287      -1.3353      1.00000
    288      -1.3175      1.00000
    289      -1.2628      1.00000
    290      -1.2045      1.00000
    291      -1.1724      1.00000
    292      -1.1522      1.00000
    293      -1.1414      1.00000
    294      -1.0951      1.00000
    295      -1.0715      1.00000
    296      -1.0241      1.00000
    297      -1.0046      1.00000
    298      -0.9915      1.00000
    299      -0.9687      1.00000
    300      -0.9539      1.00000
    301      -0.9361      1.00000
    302      -0.9247      1.00000
    303      -0.9018      1.00000
    304      -0.8933      1.00000
    305      -0.8699      1.00000
    306      -0.8600      1.00000
    307      -0.8367      1.00000
    308      -0.8065      1.00000
    309      -0.7915      1.00000
    310      -0.7862      1.00000
    311      -0.7563      1.00000
    312      -0.7352      1.00000
    313      -0.7228      1.00000
    314      -0.7082      1.00000
    315      -0.6997      1.00000
    316      -0.6921      1.00000
    317      -0.6820      1.00000
    318      -0.6583      1.00000
    319      -0.6300      1.00000
    320      -0.6168      1.00000
    321      -0.6050      1.00000
    322      -0.5873      1.00000
    323      -0.5788      1.00000
    324      -0.5594      1.00000
    325      -0.5524      1.00000
    326      -0.5329      1.00000
    327      -0.5110      1.00000
    328      -0.4995      1.00000
    329      -0.4643      1.00000
    330      -0.4575      1.00000
    331      -0.4278      1.00000
    332      -0.4155      1.00000
    333      -0.4002      1.00000
    334      -0.3836      1.00000
    335      -0.3437      1.00000
    336      -0.3333      1.00000
    337      -0.2322      1.00000
    338      -0.2106      1.00000
    339      -0.1967      1.00000
    340      -0.1850      1.00000
    341      -0.1670      1.00000
    342      -0.1493      1.00000
    343      -0.0929      1.00000
    344      -0.0633      1.00000
    345      -0.0530      1.00000
    346      -0.0456      1.00000
    347      -0.0310      1.00000
    348      -0.0051      1.00000
    349      -0.0005      1.00000
    350       0.0073      1.00000
    351       0.0215      1.00000
    352       0.0288      1.00000
    353       0.0555      1.00000
    354       0.0677      1.00000
    355       0.0780      1.00000
    356       0.0883      1.00000
    357       0.0958      1.00000
    358       0.1265      1.00000
    359       0.1409      1.00000
    360       0.1435      1.00000
    361       0.1576      1.00000
    362       0.1709      1.00000
    363       0.2162      1.00000
    364       0.2585      1.00000
    365       0.2714      1.00000
    366       0.2894      1.00000
    367       0.3000      1.00000
    368       0.3203      1.00000
    369       0.3341      1.00000
    370       0.3414      1.00000
    371       0.3460      1.00000
    372       0.3509      1.00000
    373       0.3637      1.00000
    374       0.3832      1.00000
    375       0.4036      1.00000
    376       0.4148      1.00000
    377       0.4296      1.00000
    378       0.4490      1.00000
    379       0.4642      1.00000
    380       0.4892      1.00000
    381       0.5041      1.00000
    382       0.5138      1.00000
    383       0.5409      1.00000
    384       0.5526      1.00000
    385       0.5678      1.00000
    386       0.6246      1.00000
    387       0.6382      1.00000
    388       0.7028      1.00000
    389       0.7346      1.00000
    390       0.7714      1.00000
    391       0.7871      1.00000
    392       0.8019      1.00000
    393       0.8160      1.00000
    394       0.8283      1.00000
    395       0.8535      1.00000
    396       0.8706      1.00000
    397       0.8876      1.00000
    398       0.8926      1.00000
    399       0.9156      1.00000
    400       0.9316      1.00000
    401       0.9365      1.00000
    402       0.9756      1.00000
    403       0.9890      1.00000
    404       1.0007      1.00000
    405       1.0126      1.00000
    406       1.0218      1.00000
    407       1.0423      1.00000
    408       1.0724      1.00000
    409       1.0820      1.00000
    410       1.1068      1.00000
    411       1.1231      1.00000
    412       1.1526      1.00000
    413       1.1703      1.00000
    414       1.1945      1.00000
    415       1.2009      1.00000
    416       1.2144      1.00000
    417       1.2254      1.00000
    418       1.2359      1.00000
    419       1.2463      1.00000
    420       1.2527      1.00000
    421       1.2732      1.00000
    422       1.2847      1.00000
    423       1.3042      1.00000
    424       1.3244      1.00000
    425       1.3410      1.00000
    426       1.3529      1.00000
    427       1.3654      1.00000
    428       1.3784      1.00000
    429       1.3868      1.00000
    430       1.4000      1.00000
    431       1.4032      1.00000
    432       1.4110      1.00000
    433       1.4313      1.00000
    434       1.4337      1.00000
    435       1.4417      1.00000
    436       1.4599      1.00000
    437       1.4743      1.00000
    438       1.4948      1.00000
    439       1.5193      1.00000
    440       1.5396      1.00000
    441       1.5473      1.00000
    442       1.5693      1.00000
    443       1.5953      1.00000
    444       1.6282      1.00000
    445       1.6453      1.00000
    446       1.6643      1.00000
    447       1.6725      1.00000
    448       1.6761      1.00000
    449       1.6871      1.00000
    450       1.7349      1.00000
    451       1.7589      1.00000
    452       1.7985      1.00000
    453       1.8193      1.00000
    454       1.8508      1.00000
    455       1.8544      1.00000
    456       1.9478      1.00000
    457       2.0099      1.00000
    458       2.0200      1.00000
    459       2.0766      1.00000
    460       3.2431      1.00000
    461       4.3218      0.00000
    462       4.3605      0.00000
    463       4.3895      0.00000
    464       4.4007      0.00000
    465       4.4050      0.00000
    466       4.4169      0.00000
    467       4.4194      0.00000
    468       4.4526      0.00000
    469       4.4573      0.00000
    470       4.4613      0.00000
    471       4.4726      0.00000
    472       4.4831      0.00000
    473       4.4939      0.00000
    474       4.4979      0.00000
    475       4.5108      0.00000
    476       4.5171      0.00000
    477       4.5257      0.00000
    478       4.5365      0.00000
    479       4.5434      0.00000
    480       4.5573      0.00000
    481       4.5658      0.00000
    482       4.5732      0.00000
    483       4.5835      0.00000
    484       4.5871      0.00000
    485       4.5952      0.00000
    486       4.6007      0.00000
    487       4.6171      0.00000
    488       4.6215      0.00000
    489       4.6253      0.00000
    490       4.6327      0.00000
    491       4.6411      0.00000
    492       4.6498      0.00000
    493       4.6632      0.00000
    494       4.6678      0.00000
    495       4.6719      0.00000
    496       4.6835      0.00000
    497       4.6909      0.00000
    498       4.6938      0.00000
    499       4.6997      0.00000
    500       4.7105      0.00000
    501       4.7176      0.00000
    502       4.7243      0.00000
    503       4.7317      0.00000
    504       4.7352      0.00000
    505       4.7402      0.00000
    506       4.7518      0.00000
    507       4.7590      0.00000
    508       4.7670      0.00000
    509       4.7727      0.00000
    510       4.7793      0.00000
    511       4.7838      0.00000
    512       4.7956      0.00000
    513       4.8018      0.00000
    514       4.8119      0.00000
    515       4.8144      0.00000
    516       4.8257      0.00000
    517       4.8342      0.00000
    518       4.8445      0.00000
    519       4.8501      0.00000
    520       4.8529      0.00000
    521       4.8669      0.00000
    522       4.8821      0.00000
    523       4.8834      0.00000
    524       4.8913      0.00000
    525       4.9138      0.00000
    526       4.9231      0.00000
    527       4.9269      0.00000
    528       4.9384      0.00000
    529       4.9479      0.00000
    530       4.9507      0.00000
    531       4.9596      0.00000
    532       4.9734      0.00000
    533       4.9863      0.00000
    534       4.9922      0.00000
    535       5.0055      0.00000
    536       5.0207      0.00000
    537       5.0357      0.00000
    538       5.0410      0.00000
    539       5.0683      0.00000
    540       5.0914      0.00000
    541       5.0962      0.00000
    542       5.1073      0.00000
    543       5.1540      0.00000
    544       5.1622      0.00000
    545       5.1757      0.00000
    546       5.2029      0.00000
    547       5.2143      0.00000
    548       5.2212      0.00000
    549       5.2485      0.00000
    550       5.2985      0.00000
    551       5.3130      0.00000
    552       5.3590      0.00000
    553       5.4465      0.00000
    554       5.4634      0.00000
    555       5.4813      0.00000
    556       5.4989      0.00000
    557       5.5113      0.00000
    558       5.5321      0.00000
    559       5.5700      0.00000
    560       5.5890      0.00000
    561       5.5985      0.00000
    562       5.6179      0.00000
    563       5.6206      0.00000
    564       5.6305      0.00000
    565       5.6438      0.00000
    566       5.6680      0.00000
    567       5.6765      0.00000
    568       5.6987      0.00000
    569       5.7152      0.00000
    570       5.7262      0.00000
    571       5.7393      0.00000
    572       5.7545      0.00000
    573       5.7637      0.00000
    574       5.7847      0.00000
    575       5.7972      0.00000
    576       7.8818      0.00000
    577       7.9894      0.00000
    578       8.2673      0.00000
    579       8.5958      0.00000
    580       9.0947      0.00000
    581       9.2318      0.00000
    582       9.3022      0.00000
    583       9.3336      0.00000
    584       9.4292      0.00000
    585       9.8674      0.00000
    586       9.9140      0.00000
    587       9.9382      0.00000
    588       9.9496      0.00000
    589       9.9660      0.00000
    590      10.3858      0.00000
    591      10.4135      0.00000
    592      10.5761      0.00000
    593      10.6266      0.00000
    594      10.7231      0.00000
    595      10.8008      0.00000
    596      10.8341      0.00000
    597      10.8514      0.00000
    598      10.8664      0.00000
    599      10.8837      0.00000
    600      10.9114      0.00000
    601      10.9524      0.00000
    602      10.9628      0.00000
    603      11.0318      0.00000
    604      11.1456      0.00000
    605      11.1901      0.00000
    606      11.2104      0.00000
    607      11.2352      0.00000
    608      11.2557      0.00000
    609      11.2728      0.00000
    610      11.2820      0.00000
    611      11.3122      0.00000
    612      11.3235      0.00000
    613      11.3477      0.00000
    614      11.3539      0.00000
    615      11.3913      0.00000
    616      11.3984      0.00000
    617      11.4085      0.00000
    618      11.4476      0.00000
    619      11.4641      0.00000
    620      11.5057      0.00000
    621      11.5110      0.00000
    622      11.5455      0.00000
    623      11.6044      0.00000
    624      11.6213      0.00000
    625      11.6486      0.00000
    626      11.6559      0.00000
    627      11.6705      0.00000
    628      11.6765      0.00000
    629      11.7163      0.00000
    630      11.7726      0.00000
    631      11.7906      0.00000
    632      11.8000      0.00000
    633      11.8342      0.00000
    634      11.8865      0.00000
    635      11.9052      0.00000
    636      11.9261      0.00000
    637      11.9407      0.00000
    638      11.9993      0.00000
    639      12.0141      0.00000
    640      12.0365      0.00000
    641      12.0489      0.00000
    642      12.0706      0.00000
    643      12.0907      0.00000
    644      12.1024      0.00000
    645      12.1166      0.00000
    646      12.1383      0.00000
    647      12.1815      0.00000
    648      12.2010      0.00000
    649      12.2126      0.00000
    650      12.2487      0.00000
    651      12.2579      0.00000
    652      12.2823      0.00000
    653      12.3055      0.00000
    654      12.3407      0.00000
    655      12.3516      0.00000
    656      12.3824      0.00000
    657      12.4072      0.00000
    658      12.4265      0.00000
    659      12.4562      0.00000
    660      12.4710      0.00000
    661      12.4909      0.00000
    662      12.5063      0.00000
    663      12.5982      0.00000
    664      12.6265      0.00000
    665      12.6563      0.00000
    666      12.6698      0.00000
    667      12.6933      0.00000
    668      12.7347      0.00000
    669      12.7868      0.00000
    670      12.8131      0.00000
    671      12.8289      0.00000
    672      12.8417      0.00000
    673      13.0050      0.00000
    674      13.0315      0.00000
    675      13.0618      0.00000
    676      13.1100      0.00000
    677      13.1271      0.00000
    678      13.1410      0.00000
    679      13.1595      0.00000
    680      13.1738      0.00000
    681      13.1885      0.00000
    682      13.2355      0.00000
    683      13.2548      0.00000
    684      13.3007      0.00000
    685      13.3394      0.00000
    686      13.4516      0.00000
    687      13.4956      0.00000
    688      13.5399      0.00000
    689      13.5681      0.00000
    690      13.5923      0.00000
    691      13.6064      0.00000
    692      13.6302      0.00000
    693      13.6441      0.00000
    694      13.6703      0.00000
    695      13.7165      0.00000
    696      13.7210      0.00000

 k-point     5 :      -0.3333    0.0000    0.3333
  band No.  band energies     occupation 
      1     -50.5753      1.00000
      2     -50.5723      1.00000
      3     -50.5432      1.00000
      4     -50.5241      1.00000
      5     -50.5031      1.00000
      6     -50.4865      1.00000
      7     -50.4756      1.00000
      8     -50.4754      1.00000
      9     -50.4729      1.00000
     10     -50.4717      1.00000
     11     -50.4631      1.00000
     12     -50.4605      1.00000
     13     -50.4596      1.00000
     14     -50.4530      1.00000
     15     -50.4491      1.00000
     16     -50.4435      1.00000
     17     -50.4422      1.00000
     18     -50.4352      1.00000
     19     -50.4328      1.00000
     20     -50.4310      1.00000
     21     -50.4192      1.00000
     22     -50.4109      1.00000
     23     -50.4096      1.00000
     24     -50.4083      1.00000
     25     -50.3949      1.00000
     26     -50.3913      1.00000
     27     -50.3882      1.00000
     28     -50.3845      1.00000
     29     -50.3828      1.00000
     30     -50.3802      1.00000
     31     -50.3725      1.00000
     32     -50.3700      1.00000
     33     -50.3684      1.00000
     34     -50.3675      1.00000
     35     -50.3618      1.00000
     36     -50.3599      1.00000
     37     -50.3525      1.00000
     38     -50.3487      1.00000
     39     -50.3485      1.00000
     40     -50.3482      1.00000
     41     -50.3438      1.00000
     42     -50.3402      1.00000
     43     -50.3279      1.00000
     44     -50.3233      1.00000
     45     -50.3156      1.00000
     46     -50.3099      1.00000
     47     -50.3049      1.00000
     48     -50.3035      1.00000
     49     -50.3013      1.00000
     50     -50.2976      1.00000
     51     -50.2948      1.00000
     52     -50.2939      1.00000
     53     -50.2893      1.00000
     54     -50.2837      1.00000
     55     -50.2825      1.00000
     56     -50.2729      1.00000
     57     -50.2726      1.00000
     58     -50.2724      1.00000
     59     -50.2675      1.00000
     60     -50.2669      1.00000
     61     -50.2464      1.00000
     62     -50.2412      1.00000
     63     -50.2338      1.00000
     64     -50.2338      1.00000
     65     -50.2293      1.00000
     66     -50.2241      1.00000
     67     -50.2099      1.00000
     68     -50.1814      1.00000
     69     -50.1746      1.00000
     70     -46.8883      1.00000
     71     -46.4366      1.00000
     72     -46.3373      1.00000
     73     -18.9455      1.00000
     74     -18.7824      1.00000
     75     -18.7394      1.00000
     76     -18.4166      1.00000
     77     -18.3297      1.00000
     78     -18.2704      1.00000
     79     -18.2398      1.00000
     80     -18.2261      1.00000
     81     -18.1953      1.00000
     82     -18.1766      1.00000
     83     -18.1719      1.00000
     84     -18.1503      1.00000
     85     -18.1356      1.00000
     86     -18.1142      1.00000
     87     -18.0918      1.00000
     88     -18.0571      1.00000
     89     -18.0406      1.00000
     90     -18.0214      1.00000
     91     -18.0120      1.00000
     92     -18.0048      1.00000
     93     -17.9985      1.00000
     94     -17.9850      1.00000
     95     -17.9771      1.00000
     96     -17.9489      1.00000
     97     -17.9301      1.00000
     98     -17.9243      1.00000
     99     -17.8715      1.00000
    100     -16.0584      1.00000
    101     -15.9691      1.00000
    102     -15.9227      1.00000
    103     -15.9193      1.00000
    104     -15.9061      1.00000
    105     -15.8944      1.00000
    106     -15.8816      1.00000
    107     -15.8683      1.00000
    108     -15.8477      1.00000
    109     -15.8414      1.00000
    110     -15.8362      1.00000
    111     -15.8240      1.00000
    112     -15.8161      1.00000
    113     -15.8037      1.00000
    114     -15.7942      1.00000
    115     -15.7879      1.00000
    116     -15.7777      1.00000
    117     -15.7696      1.00000
    118     -15.7638      1.00000
    119     -15.7479      1.00000
    120     -15.7428      1.00000
    121     -15.7209      1.00000
    122     -15.7182      1.00000
    123     -15.6874      1.00000
    124     -15.6819      1.00000
    125     -15.6697      1.00000
    126     -15.6589      1.00000
    127     -15.6212      1.00000
    128     -15.6038      1.00000
    129     -15.5857      1.00000
    130     -15.5784      1.00000
    131     -15.5708      1.00000
    132     -15.5617      1.00000
    133     -15.5557      1.00000
    134     -15.5431      1.00000
    135     -15.5365      1.00000
    136     -15.5190      1.00000
    137     -15.5143      1.00000
    138     -15.5071      1.00000
    139     -15.5052      1.00000
    140     -15.4994      1.00000
    141     -15.4948      1.00000
    142     -15.4922      1.00000
    143     -15.4894      1.00000
    144     -15.4826      1.00000
    145     -15.4704      1.00000
    146     -15.4617      1.00000
    147     -15.4409      1.00000
    148     -15.4340      1.00000
    149     -15.4242      1.00000
    150     -15.4171      1.00000
    151     -15.4139      1.00000
    152     -15.3973      1.00000
    153     -15.3843      1.00000
    154     -15.3786      1.00000
    155     -15.3731      1.00000
    156     -15.3662      1.00000
    157     -15.3614      1.00000
    158     -15.3580      1.00000
    159     -15.3508      1.00000
    160     -15.3442      1.00000
    161     -15.3384      1.00000
    162     -15.3377      1.00000
    163     -15.3253      1.00000
    164     -15.3202      1.00000
    165     -15.3151      1.00000
    166     -15.3097      1.00000
    167     -15.3064      1.00000
    168     -15.2877      1.00000
    169     -15.2517      1.00000
    170     -15.2292      1.00000
    171     -15.1941      1.00000
    172      -6.0245      1.00000
    173      -5.8923      1.00000
    174      -5.8362      1.00000
    175      -5.8104      1.00000
    176      -5.7558      1.00000
    177      -5.7069      1.00000
    178      -5.6863      1.00000
    179      -5.6648      1.00000
    180      -5.5729      1.00000
    181      -5.5617      1.00000
    182      -5.5418      1.00000
    183      -5.5099      1.00000
    184      -5.4857      1.00000
    185      -5.4586      1.00000
    186      -5.4350      1.00000
    187      -5.4160      1.00000
    188      -5.3791      1.00000
    189      -5.3527      1.00000
    190      -5.3190      1.00000
    191      -5.3131      1.00000
    192      -5.2955      1.00000
    193      -5.2567      1.00000
    194      -5.2393      1.00000
    195      -5.1848      1.00000
    196      -4.1817      1.00000
    197      -4.0271      1.00000
    198      -3.9700      1.00000
    199      -3.9500      1.00000
    200      -3.9214      1.00000
    201      -3.8572      1.00000
    202      -3.8197      1.00000
    203      -3.7773      1.00000
    204      -3.7406      1.00000
    205      -3.7287      1.00000
    206      -3.6349      1.00000
    207      -3.6231      1.00000
    208      -3.5950      1.00000
    209      -3.5751      1.00000
    210      -3.5350      1.00000
    211      -3.4954      1.00000
    212      -3.4888      1.00000
    213      -3.4759      1.00000
    214      -3.4620      1.00000
    215      -3.4543      1.00000
    216      -3.4433      1.00000
    217      -3.4226      1.00000
    218      -3.4073      1.00000
    219      -3.3754      1.00000
    220      -3.3606      1.00000
    221      -3.3417      1.00000
    222      -3.3230      1.00000
    223      -3.3130      1.00000
    224      -3.2944      1.00000
    225      -3.2763      1.00000
    226      -3.2575      1.00000
    227      -3.2455      1.00000
    228      -3.2237      1.00000
    229      -3.2077      1.00000
    230      -3.1982      1.00000
    231      -3.1831      1.00000
    232      -3.1778      1.00000
    233      -3.1661      1.00000
    234      -3.1535      1.00000
    235      -3.1377      1.00000
    236      -3.1337      1.00000
    237      -3.1204      1.00000
    238      -3.1134      1.00000
    239      -3.0946      1.00000
    240      -3.0772      1.00000
    241      -3.0462      1.00000
    242      -3.0392      1.00000
    243      -3.0256      1.00000
    244      -2.9910      1.00000
    245      -2.9787      1.00000
    246      -2.9708      1.00000
    247      -2.9585      1.00000
    248      -2.9359      1.00000
    249      -2.9101      1.00000
    250      -2.8753      1.00000
    251      -2.8667      1.00000
    252      -2.8321      1.00000
    253      -2.8175      1.00000
    254      -2.7926      1.00000
    255      -2.7798      1.00000
    256      -2.7728      1.00000
    257      -2.7692      1.00000
    258      -2.7382      1.00000
    259      -2.7272      1.00000
    260      -2.7000      1.00000
    261      -2.6825      1.00000
    262      -2.6669      1.00000
    263      -2.6424      1.00000
    264      -2.6346      1.00000
    265      -2.6191      1.00000
    266      -2.5993      1.00000
    267      -2.4691      1.00000
    268      -1.9999      1.00000
    269      -1.9451      1.00000
    270      -1.9160      1.00000
    271      -1.8852      1.00000
    272      -1.8295      1.00000
    273      -1.8093      1.00000
    274      -1.8002      1.00000
    275      -1.7870      1.00000
    276      -1.7817      1.00000
    277      -1.7488      1.00000
    278      -1.7093      1.00000
    279      -1.6910      1.00000
    280      -1.6724      1.00000
    281      -1.6102      1.00000
    282      -1.5299      1.00000
    283      -1.5183      1.00000
    284      -1.4950      1.00000
    285      -1.4809      1.00000
    286      -1.3995      1.00000
    287      -1.3417      1.00000
    288      -1.3300      1.00000
    289      -1.2588      1.00000
    290      -1.2288      1.00000
    291      -1.1657      1.00000
    292      -1.1411      1.00000
    293      -1.1281      1.00000
    294      -1.1101      1.00000
    295      -1.0751      1.00000
    296      -1.0363      1.00000
    297      -1.0106      1.00000
    298      -0.9906      1.00000
    299      -0.9790      1.00000
    300      -0.9603      1.00000
    301      -0.9298      1.00000
    302      -0.9109      1.00000
    303      -0.8945      1.00000
    304      -0.8775      1.00000
    305      -0.8688      1.00000
    306      -0.8432      1.00000
    307      -0.8324      1.00000
    308      -0.8173      1.00000
    309      -0.8032      1.00000
    310      -0.7905      1.00000
    311      -0.7725      1.00000
    312      -0.7423      1.00000
    313      -0.7286      1.00000
    314      -0.6989      1.00000
    315      -0.6868      1.00000
    316      -0.6782      1.00000
    317      -0.6622      1.00000
    318      -0.6464      1.00000
    319      -0.6423      1.00000
    320      -0.6146      1.00000
    321      -0.5980      1.00000
    322      -0.5863      1.00000
    323      -0.5740      1.00000
    324      -0.5604      1.00000
    325      -0.5582      1.00000
    326      -0.5390      1.00000
    327      -0.5128      1.00000
    328      -0.4947      1.00000
    329      -0.4753      1.00000
    330      -0.4629      1.00000
    331      -0.4274      1.00000
    332      -0.4133      1.00000
    333      -0.3909      1.00000
    334      -0.3618      1.00000
    335      -0.3368      1.00000
    336      -0.3039      1.00000
    337      -0.2546      1.00000
    338      -0.2445      1.00000
    339      -0.2247      1.00000
    340      -0.2024      1.00000
    341      -0.1507      1.00000
    342      -0.1353      1.00000
    343      -0.0960      1.00000
    344      -0.0728      1.00000
    345      -0.0551      1.00000
    346      -0.0418      1.00000
    347      -0.0288      1.00000
    348      -0.0157      1.00000
    349      -0.0022      1.00000
    350       0.0052      1.00000
    351       0.0137      1.00000
    352       0.0273      1.00000
    353       0.0353      1.00000
    354       0.0699      1.00000
    355       0.0762      1.00000
    356       0.0881      1.00000
    357       0.1035      1.00000
    358       0.1154      1.00000
    359       0.1360      1.00000
    360       0.1498      1.00000
    361       0.1682      1.00000
    362       0.1777      1.00000
    363       0.2414      1.00000
    364       0.2618      1.00000
    365       0.2754      1.00000
    366       0.2863      1.00000
    367       0.3011      1.00000
    368       0.3130      1.00000
    369       0.3267      1.00000
    370       0.3409      1.00000
    371       0.3527      1.00000
    372       0.3576      1.00000
    373       0.3747      1.00000
    374       0.3799      1.00000
    375       0.3973      1.00000
    376       0.4116      1.00000
    377       0.4312      1.00000
    378       0.4419      1.00000
    379       0.4789      1.00000
    380       0.4890      1.00000
    381       0.4949      1.00000
    382       0.5416      1.00000
    383       0.5476      1.00000
    384       0.5593      1.00000
    385       0.5730      1.00000
    386       0.6054      1.00000
    387       0.6332      1.00000
    388       0.6877      1.00000
    389       0.7226      1.00000
    390       0.7752      1.00000
    391       0.7856      1.00000
    392       0.8037      1.00000
    393       0.8252      1.00000
    394       0.8388      1.00000
    395       0.8422      1.00000
    396       0.8687      1.00000
    397       0.8828      1.00000
    398       0.8991      1.00000
    399       0.9179      1.00000
    400       0.9354      1.00000
    401       0.9444      1.00000
    402       0.9714      1.00000
    403       0.9788      1.00000
    404       0.9930      1.00000
    405       1.0050      1.00000
    406       1.0261      1.00000
    407       1.0545      1.00000
    408       1.0786      1.00000
    409       1.0915      1.00000
    410       1.1016      1.00000
    411       1.1171      1.00000
    412       1.1522      1.00000
    413       1.1700      1.00000
    414       1.1825      1.00000
    415       1.1940      1.00000
    416       1.2081      1.00000
    417       1.2268      1.00000
    418       1.2348      1.00000
    419       1.2431      1.00000
    420       1.2646      1.00000
    421       1.2813      1.00000
    422       1.2865      1.00000
    423       1.3008      1.00000
    424       1.3349      1.00000
    425       1.3449      1.00000
    426       1.3491      1.00000
    427       1.3609      1.00000
    428       1.3732      1.00000
    429       1.3791      1.00000
    430       1.3903      1.00000
    431       1.4050      1.00000
    432       1.4103      1.00000
    433       1.4355      1.00000
    434       1.4369      1.00000
    435       1.4454      1.00000
    436       1.4696      1.00000
    437       1.4851      1.00000
    438       1.5001      1.00000
    439       1.5201      1.00000
    440       1.5300      1.00000
    441       1.5447      1.00000
    442       1.5655      1.00000
    443       1.5944      1.00000
    444       1.6112      1.00000
    445       1.6416      1.00000
    446       1.6528      1.00000
    447       1.6662      1.00000
    448       1.6899      1.00000
    449       1.7091      1.00000
    450       1.7511      1.00000
    451       1.7609      1.00000
    452       1.7978      1.00000
    453       1.8135      1.00000
    454       1.8445      1.00000
    455       1.8529      1.00000
    456       1.9441      1.00000
    457       2.0029      1.00000
    458       2.0269      1.00000
    459       2.0773      1.00000
    460       3.2427      1.00000
    461       4.3201      0.00000
    462       4.3623      0.00000
    463       4.3868      0.00000
    464       4.3989      0.00000
    465       4.4061      0.00000
    466       4.4185      0.00000
    467       4.4205      0.00000
    468       4.4557      0.00000
    469       4.4593      0.00000
    470       4.4616      0.00000
    471       4.4702      0.00000
    472       4.4839      0.00000
    473       4.4915      0.00000
    474       4.4965      0.00000
    475       4.5040      0.00000
    476       4.5176      0.00000
    477       4.5285      0.00000
    478       4.5382      0.00000
    479       4.5432      0.00000
    480       4.5608      0.00000
    481       4.5668      0.00000
    482       4.5741      0.00000
    483       4.5779      0.00000
    484       4.5827      0.00000
    485       4.5984      0.00000
    486       4.6118      0.00000
    487       4.6140      0.00000
    488       4.6187      0.00000
    489       4.6280      0.00000
    490       4.6332      0.00000
    491       4.6379      0.00000
    492       4.6565      0.00000
    493       4.6614      0.00000
    494       4.6665      0.00000
    495       4.6737      0.00000
    496       4.6823      0.00000
    497       4.6859      0.00000
    498       4.6927      0.00000
    499       4.6971      0.00000
    500       4.7082      0.00000
    501       4.7171      0.00000
    502       4.7212      0.00000
    503       4.7279      0.00000
    504       4.7328      0.00000
    505       4.7450      0.00000
    506       4.7556      0.00000
    507       4.7618      0.00000
    508       4.7646      0.00000
    509       4.7744      0.00000
    510       4.7797      0.00000
    511       4.7873      0.00000
    512       4.7934      0.00000
    513       4.7996      0.00000
    514       4.8110      0.00000
    515       4.8201      0.00000
    516       4.8298      0.00000
    517       4.8351      0.00000
    518       4.8453      0.00000
    519       4.8530      0.00000
    520       4.8575      0.00000
    521       4.8653      0.00000
    522       4.8742      0.00000
    523       4.8874      0.00000
    524       4.9028      0.00000
    525       4.9107      0.00000
    526       4.9226      0.00000
    527       4.9304      0.00000
    528       4.9358      0.00000
    529       4.9460      0.00000
    530       4.9547      0.00000
    531       4.9593      0.00000
    532       4.9673      0.00000
    533       4.9799      0.00000
    534       4.9912      0.00000
    535       4.9986      0.00000
    536       5.0158      0.00000
    537       5.0343      0.00000
    538       5.0425      0.00000
    539       5.0766      0.00000
    540       5.0935      0.00000
    541       5.1008      0.00000
    542       5.1109      0.00000
    543       5.1415      0.00000
    544       5.1523      0.00000
    545       5.1725      0.00000
    546       5.2141      0.00000
    547       5.2188      0.00000
    548       5.2383      0.00000
    549       5.2459      0.00000
    550       5.2860      0.00000
    551       5.3019      0.00000
    552       5.3650      0.00000
    553       5.4516      0.00000
    554       5.4655      0.00000
    555       5.4736      0.00000
    556       5.5016      0.00000
    557       5.5078      0.00000
    558       5.5411      0.00000
    559       5.5625      0.00000
    560       5.5902      0.00000
    561       5.5990      0.00000
    562       5.6137      0.00000
    563       5.6257      0.00000
    564       5.6298      0.00000
    565       5.6394      0.00000
    566       5.6738      0.00000
    567       5.6815      0.00000
    568       5.6954      0.00000
    569       5.7118      0.00000
    570       5.7253      0.00000
    571       5.7416      0.00000
    572       5.7485      0.00000
    573       5.7602      0.00000
    574       5.7894      0.00000
    575       5.8003      0.00000
    576       7.8816      0.00000
    577       7.9893      0.00000
    578       8.2505      0.00000
    579       8.6270      0.00000
    580       9.1010      0.00000
    581       9.2370      0.00000
    582       9.2994      0.00000
    583       9.3312      0.00000
    584       9.4191      0.00000
    585       9.8581      0.00000
    586       9.9108      0.00000
    587       9.9212      0.00000
    588       9.9495      0.00000
    589       9.9626      0.00000
    590      10.3888      0.00000
    591      10.4142      0.00000
    592      10.5859      0.00000
    593      10.6306      0.00000
    594      10.7624      0.00000
    595      10.7848      0.00000
    596      10.8229      0.00000
    597      10.8419      0.00000
    598      10.8587      0.00000
    599      10.8812      0.00000
    600      10.9167      0.00000
    601      10.9620      0.00000
    602      10.9729      0.00000
    603      11.0227      0.00000
    604      11.1513      0.00000
    605      11.1742      0.00000
    606      11.2074      0.00000
    607      11.2100      0.00000
    608      11.2458      0.00000
    609      11.2752      0.00000
    610      11.3008      0.00000
    611      11.3102      0.00000
    612      11.3256      0.00000
    613      11.3514      0.00000
    614      11.3580      0.00000
    615      11.3742      0.00000
    616      11.3846      0.00000
    617      11.4196      0.00000
    618      11.4461      0.00000
    619      11.4545      0.00000
    620      11.4959      0.00000
    621      11.5558      0.00000
    622      11.5700      0.00000
    623      11.5983      0.00000
    624      11.6203      0.00000
    625      11.6260      0.00000
    626      11.6573      0.00000
    627      11.6788      0.00000
    628      11.6857      0.00000
    629      11.7479      0.00000
    630      11.7778      0.00000
    631      11.7978      0.00000
    632      11.8094      0.00000
    633      11.8466      0.00000
    634      11.8886      0.00000
    635      11.9061      0.00000
    636      11.9149      0.00000
    637      11.9410      0.00000
    638      11.9589      0.00000
    639      11.9760      0.00000
    640      11.9988      0.00000
    641      12.0546      0.00000
    642      12.0606      0.00000
    643      12.0724      0.00000
    644      12.1074      0.00000
    645      12.1226      0.00000
    646      12.1481      0.00000
    647      12.1789      0.00000
    648      12.2067      0.00000
    649      12.2194      0.00000
    650      12.2543      0.00000
    651      12.2766      0.00000
    652      12.2951      0.00000
    653      12.3260      0.00000
    654      12.3451      0.00000
    655      12.3618      0.00000
    656      12.4062      0.00000
    657      12.4252      0.00000
    658      12.4377      0.00000
    659      12.4563      0.00000
    660      12.4725      0.00000
    661      12.5008      0.00000
    662      12.5215      0.00000
    663      12.5486      0.00000
    664      12.5900      0.00000
    665      12.6163      0.00000
    666      12.6570      0.00000
    667      12.6832      0.00000
    668      12.7599      0.00000
    669      12.7889      0.00000
    670      12.8077      0.00000
    671      12.8380      0.00000
    672      12.8580      0.00000
    673      12.9864      0.00000
    674      13.0652      0.00000
    675      13.0920      0.00000
    676      13.1083      0.00000
    677      13.1211      0.00000
    678      13.1342      0.00000
    679      13.1585      0.00000
    680      13.1680      0.00000
    681      13.2024      0.00000
    682      13.2377      0.00000
    683      13.2732      0.00000
    684      13.2952      0.00000
    685      13.3113      0.00000
    686      13.4377      0.00000
    687      13.4882      0.00000
    688      13.4998      0.00000
    689      13.5512      0.00000
    690      13.5715      0.00000
    691      13.6001      0.00000
    692      13.6458      0.00000
    693      13.6637      0.00000
    694      13.6982      0.00000
    695      13.7227      0.00000
    696      13.7557      0.00000


--------------------------------------------------------------------------------------------------------


 soft charge-density along one line, spin component           1
         0         1         2         3         4         5         6         7         8         9
 total charge-density along one line

 soft charge-density along one line, spin component           2
         0         1         2         3         4         5         6         7         8         9
 total charge-density along one line

 pseudopotential strength for first ion, spin component:           1
-53.005   0.000   0.002  10.977  -0.000  -0.001  -0.003  -0.013
  0.000 -53.043   0.083  -0.000  10.992  -0.028  -0.001  -0.003
  0.002   0.083 -52.985  -0.001  -0.028  10.973  -0.003  -0.001
 10.977  -0.000  -0.001   4.835   0.000   0.000   0.002   0.000
 -0.000  10.992  -0.028   0.000   4.832   0.005   0.000   0.000
 -0.001  -0.028  10.973   0.000   0.005   4.836   0.001   0.000
 -0.003  -0.001  -0.003   0.002   0.000   0.001 -10.990   0.075
 -0.013  -0.003  -0.001   0.000   0.000   0.000   0.075 -11.043
  0.002  -0.014   0.009  -0.001   0.004  -0.006  -0.001  -0.001
 -0.001   0.012  -0.016   0.000  -0.007   0.005   0.000   0.000
  0.003  -0.002  -0.000  -0.001   0.002   0.001   0.000  -0.000
 -0.003  -0.001  -0.003   0.002   0.000   0.001 -11.459   0.076
 -0.013  -0.003  -0.001   0.001   0.000   0.000   0.076 -11.513
  0.002  -0.014   0.008  -0.001   0.004  -0.005  -0.001  -0.001
 -0.001   0.012  -0.016   0.000  -0.007   0.005   0.000   0.000
  0.003  -0.001  -0.000  -0.001   0.002   0.001   0.000  -0.000
  0.001   0.003  -0.000   0.000   0.001  -0.000  -0.000  -0.000
  0.001   0.006  -0.001   0.001   0.004  -0.000  -0.001  -0.000
 pseudopotential strength for first ion, spin component:           2
-49.233  -0.000   0.001   9.392   0.000  -0.001   0.007  -0.034
 -0.000 -49.254   0.077   0.000   9.400  -0.032   0.002  -0.006
  0.001   0.077 -49.192  -0.001  -0.032   9.374  -0.004   0.002
  9.392   0.000  -0.001   5.303   0.000  -0.000  -0.005   0.017
  0.000   9.400  -0.032   0.000   5.301  -0.002  -0.001   0.003
 -0.001  -0.032   9.374  -0.000  -0.002   5.299   0.002  -0.001
  0.007   0.002  -0.004  -0.005  -0.001   0.002  -3.630   0.270
 -0.034  -0.006   0.002   0.017   0.003  -0.001   0.270  -3.862
  0.002  -0.018  -0.020  -0.000   0.006   0.015  -0.000   0.013
  0.002  -0.021  -0.015  -0.001   0.016   0.004   0.003  -0.003
  0.004   0.010   0.007  -0.002  -0.006  -0.004  -0.008   0.011
  0.007   0.002  -0.004  -0.005  -0.001   0.002  -4.036   0.274
 -0.034  -0.005   0.002   0.017   0.003  -0.001   0.274  -4.271
  0.002  -0.018  -0.019  -0.000   0.006   0.015  -0.000   0.014
  0.002  -0.020  -0.015  -0.001   0.017   0.004   0.003  -0.004
  0.004   0.009   0.007  -0.002  -0.007  -0.004  -0.008   0.011
  0.002   0.007  -0.000   0.000   0.002  -0.000  -0.000   0.000
  0.004   0.017  -0.001   0.001   0.006  -0.001  -0.001   0.000
 total augmentation occupancy for first ion, spin component:           1
  1.986  -0.000  -0.000  -0.052  -0.000   0.000  -0.008   0.012   0.000  -0.002  -0.001   0.008  -0.010  -0.000   0.001   0.001
 -0.000   1.986  -0.000  -0.000  -0.052   0.001  -0.001   0.002   0.002   0.016  -0.007   0.001  -0.001  -0.001  -0.015   0.006
 -0.000  -0.000   1.986   0.000   0.001  -0.051   0.000  -0.001   0.014  -0.001  -0.001  -0.000   0.001  -0.013   0.001   0.000
 -0.052  -0.000   0.000   0.161  -0.000   0.001  -0.111   0.219   0.007  -0.025  -0.010   0.109  -0.213  -0.007   0.025   0.010
 -0.000  -0.052   0.001  -0.000   0.167   0.038  -0.024   0.021  -0.042   0.248  -0.142   0.024  -0.021   0.037  -0.257   0.144
  0.000   0.001  -0.051   0.001   0.038   0.200   0.000  -0.024   0.207  -0.052  -0.000  -0.000   0.024  -0.219   0.049   0.004
 -0.008  -0.001   0.000  -0.111  -0.024   0.000   8.200  -2.089  -0.007  -0.024   0.037  -5.822   2.022   0.007   0.024  -0.036
  0.012   0.002  -0.001   0.219   0.021  -0.024  -2.089   9.902  -0.030   0.036  -0.038   2.022  -7.474   0.030  -0.036   0.037
  0.000   0.002   0.014   0.007  -0.042   0.207  -0.007  -0.030   6.725   0.050   0.030   0.007   0.030  -4.405  -0.044  -0.019
 -0.002   0.016  -0.001  -0.025   0.248  -0.052  -0.024   0.036   0.050  12.515   4.718   0.024  -0.036  -0.041 -10.107  -4.632
 -0.001  -0.007  -0.001  -0.010  -0.142  -0.000   0.037  -0.038   0.030   4.718  10.844  -0.037   0.038  -0.017  -4.635  -8.439
  0.008   0.001  -0.000   0.109   0.024  -0.000  -5.822   2.022   0.007   0.024  -0.037   4.684  -1.999  -0.007  -0.024   0.037
 -0.010  -0.001   0.001  -0.213  -0.021   0.024   2.022  -7.474   0.030  -0.036   0.038  -1.999   6.323  -0.032   0.037  -0.039
 -0.000  -0.001  -0.013  -0.007   0.037  -0.219   0.007   0.030  -4.405  -0.041  -0.017  -0.007  -0.032   3.293   0.050   0.006
  0.001  -0.015   0.001   0.025  -0.257   0.049   0.024  -0.036  -0.044 -10.107  -4.635  -0.024   0.037   0.050   8.982   4.626
  0.001   0.006   0.000   0.010   0.144   0.004  -0.036   0.037  -0.019  -4.632  -8.439   0.037  -0.039   0.006   4.626   7.306
 -0.001  -0.007   0.001  -0.004  -0.019   0.003  -0.010   0.001   0.085  -0.644  -0.414   0.011  -0.001  -0.091   0.670   0.419
  0.001   0.003  -0.000   0.000   0.000   0.000  -0.000   0.000   0.006  -0.015  -0.001  -0.000  -0.000  -0.002  -0.003  -0.006
 total augmentation occupancy for first ion, spin component:           2
 -0.004   0.000  -0.000  -0.013   0.000  -0.000   0.000  -0.003   0.000   0.000   0.000  -0.000   0.003  -0.000  -0.000  -0.000
  0.000  -0.004  -0.000   0.000  -0.013  -0.001   0.000  -0.001  -0.002  -0.003   0.001  -0.000   0.000   0.002   0.004  -0.001
 -0.000  -0.000  -0.004  -0.000  -0.001  -0.014  -0.000   0.000  -0.003  -0.002   0.002   0.000  -0.000   0.004   0.001  -0.002
 -0.013   0.000  -0.000   0.017   0.000  -0.000  -0.052   0.097   0.003  -0.014  -0.007   0.040  -0.072  -0.002   0.010   0.006
  0.000  -0.013  -0.001   0.000   0.018   0.001  -0.013   0.013  -0.010   0.140  -0.059   0.009  -0.009   0.009  -0.097   0.037
 -0.000  -0.001  -0.014  -0.000   0.001   0.018   0.003  -0.013   0.115  -0.020  -0.014  -0.002   0.009  -0.075   0.017   0.008
  0.000   0.000  -0.000  -0.052  -0.013   0.003   7.481  -1.587  -0.005  -0.017   0.029  -4.806   1.381   0.003   0.014  -0.026
 -0.003  -0.001   0.000   0.097   0.013  -0.013  -1.587   8.680  -0.028   0.025  -0.033   1.381  -5.848   0.025  -0.022   0.030
  0.000  -0.002  -0.003   0.003  -0.010   0.115  -0.005  -0.028   6.289   0.140   0.035   0.004   0.025  -3.770  -0.131  -0.033
  0.000  -0.003  -0.002  -0.014   0.140  -0.020  -0.017   0.025   0.140  10.243   3.348   0.015  -0.022  -0.132  -7.234  -2.939
  0.000   0.001   0.002  -0.007  -0.059  -0.014   0.029  -0.033   0.035   3.348   9.219  -0.026   0.030  -0.034  -2.937  -6.341
 -0.000  -0.000   0.000   0.040   0.009  -0.002  -4.806   1.381   0.004   0.015  -0.026   3.168  -1.148  -0.002  -0.011   0.022
  0.003   0.000  -0.000  -0.072  -0.009   0.009   1.381  -5.848   0.025  -0.022   0.030  -1.148   4.027  -0.021   0.018  -0.025
 -0.000   0.002   0.004  -0.002   0.009  -0.075   0.003   0.025  -3.770  -0.132  -0.034  -0.002  -0.021   2.307   0.108   0.032
 -0.000   0.004   0.001   0.010  -0.097   0.017   0.014  -0.022  -0.131  -7.234  -2.937  -0.011   0.018   0.108   5.237   2.479
 -0.000  -0.001  -0.002   0.006   0.037   0.008  -0.026   0.030  -0.033  -2.939  -6.341   0.022  -0.025   0.032   2.479   4.479
  0.000   0.001  -0.000   0.000  -0.002   0.001  -0.002   0.002   0.022  -0.212  -0.158   0.001  -0.001  -0.015   0.155   0.120
 -0.000  -0.000   0.000  -0.000  -0.001   0.000  -0.001   0.000   0.010  -0.046  -0.020   0.000  -0.000  -0.006   0.034   0.018


------------------------ aborting loop because EDIFF is reached ----------------------------------------





 total charge

# of ion       s       p       d       tot
------------------------------------------
    1        0.271   6.323   5.546  12.141
    2        0.272   6.323   5.550  12.145
    3        0.270   6.322   5.546  12.138
    4        0.272   6.325   5.546  12.144
    5        0.272   6.326   5.548  12.146
    6        0.272   6.326   5.548  12.146
    7        0.270   6.320   5.546  12.136
    8        0.270   6.322   5.544  12.136
    9        0.275   6.331   5.572  12.178
   10        0.272   6.324   5.549  12.144
   11        0.271   6.324   5.548  12.144
   12        0.202   6.207   5.931  12.340
   13        0.274   6.329   5.553  12.156
   14        0.272   6.327   5.550  12.148
   15        0.271   6.324   5.549  12.144
   16        0.280   6.339   5.558  12.177
   17        0.270   6.320   5.543  12.133
   18        0.271   6.324   5.546  12.140
   19        0.271   6.324   5.545  12.140
   20        0.272   6.326   5.547  12.145
   21        0.272   6.326   5.547  12.145
   22        0.271   6.323   5.545  12.139
   23        0.271   6.323   5.545  12.139
   24        0.270   6.322   5.544  12.137
   25        1.567   3.603   0.000   5.171
   26        1.566   3.596   0.000   5.162
   27        1.566   3.603   0.000   5.169
   28        1.568   3.602   0.000   5.169
   29        1.565   3.598   0.000   5.163
   30        1.564   3.600   0.000   5.164
   31        1.565   3.594   0.000   5.159
   32        1.566   3.597   0.000   5.163
   33        1.564   3.570   0.000   5.134
   34        1.564   3.583   0.000   5.147
   35        1.565   3.568   0.000   5.133
   36        1.564   3.568   0.000   5.132
   37        1.568   3.573   0.000   5.140
   38        1.564   3.570   0.000   5.134
   39        1.564   3.570   0.000   5.134
   40        1.565   3.569   0.000   5.134
   41        1.568   3.604   0.000   5.171
   42        1.568   3.605   0.000   5.174
   43        1.568   3.604   0.000   5.172
   44        1.568   3.603   0.000   5.171
   45        1.565   3.597   0.000   5.161
   46        1.565   3.598   0.000   5.163
   47        1.566   3.597   0.000   5.163
   48        1.565   3.599   0.000   5.164
   49        1.564   3.569   0.000   5.133
   50        1.564   3.567   0.000   5.131
   51        1.564   3.568   0.000   5.133
   52        1.564   3.567   0.000   5.131
   53        1.565   3.567   0.000   5.131
   54        1.564   3.568   0.000   5.132
   55        1.565   3.568   0.000   5.132
   56        1.564   3.572   0.000   5.136
   57        1.566   3.601   0.000   5.167
   58        1.567   3.602   0.000   5.169
   59        1.566   3.602   0.000   5.168
   60        1.564   3.638   0.000   5.202
   61        1.561   3.637   0.000   5.199
   62        1.564   3.598   0.000   5.162
   63        1.565   3.600   0.000   5.165
   64        1.568   3.606   0.000   5.174
   65        1.564   3.565   0.000   5.129
   66        1.564   3.568   0.000   5.132
   67        1.567   3.576   0.000   5.143
   68        1.566   3.582   0.000   5.147
   69        1.565   3.567   0.000   5.132
   70        1.564   3.575   0.000   5.139
   71        1.564   3.568   0.000   5.132
   72        1.564   3.558   0.000   5.122
   73        1.569   3.602   0.000   5.172
   74        1.567   3.605   0.000   5.172
   75        1.568   3.605   0.000   5.174
   76        1.572   3.617   0.000   5.189
   77        1.563   3.595   0.000   5.158
   78        1.565   3.598   0.000   5.163
   79        1.566   3.596   0.000   5.162
   80        1.567   3.608   0.000   5.176
   81        1.564   3.574   0.000   5.138
   82        1.564   3.570   0.000   5.134
   83        1.565   3.567   0.000   5.132
   84        1.564   3.571   0.000   5.135
   85        1.564   3.569   0.000   5.133
   86        1.564   3.572   0.000   5.136
   87        1.564   3.575   0.000   5.140
   88        1.564   3.569   0.000   5.133
   89        1.567   3.603   0.000   5.170
   90        1.568   3.603   0.000   5.170
   91        1.567   3.604   0.000   5.171
   92        1.568   3.602   0.000   5.170
   93        1.565   3.598   0.000   5.163
   94        1.565   3.597   0.000   5.162
   95        1.565   3.599   0.000   5.164
   96        1.566   3.598   0.000   5.163
   97        1.564   3.569   0.000   5.133
   98        1.564   3.569   0.000   5.134
   99        1.564   3.570   0.000   5.134
  100        1.564   3.570   0.000   5.134
  101        1.564   3.569   0.000   5.134
  102        1.564   3.569   0.000   5.133
  103        1.564   3.571   0.000   5.135
  104        1.564   3.568   0.000   5.132
  105        1.568   3.604   0.000   5.171
  106        1.568   3.603   0.000   5.170
  107        1.568   3.604   0.000   5.171
  108        1.567   3.603   0.000   5.171
  109        1.565   3.596   0.000   5.161
  110        1.565   3.597   0.000   5.162
  111        1.565   3.598   0.000   5.163
  112        1.565   3.599   0.000   5.164
  113        1.564   3.569   0.000   5.133
  114        1.564   3.570   0.000   5.134
  115        1.564   3.568   0.000   5.132
  116        1.564   3.567   0.000   5.131
  117        1.564   3.568   0.000   5.132
  118        1.564   3.568   0.000   5.132
  119        1.564   3.568   0.000   5.132
  120        1.564   3.570   0.000   5.134
  121        0.912   1.501   0.000   2.413
  122        0.914   1.503   0.000   2.417
  123        0.913   1.504   0.000   2.416
  124        0.913   1.501   0.000   2.413
  125        0.913   1.502   0.000   2.414
  126        0.912   1.497   0.000   2.409
  127        0.913   1.504   0.000   2.417
  128        0.912   1.500   0.000   2.412
  129        0.915   1.508   0.000   2.422
  130        0.912   1.499   0.000   2.411
  131        0.913   1.503   0.000   2.416
  132        0.915   1.517   0.000   2.431
  133        0.915   1.510   0.000   2.425
  134        0.912   1.499   0.000   2.411
  135        0.913   1.504   0.000   2.418
  136        0.913   1.504   0.000   2.417
  137        0.913   1.501   0.000   2.413
  138        0.913   1.501   0.000   2.414
  139        0.912   1.501   0.000   2.413
  140        0.913   1.501   0.000   2.414
  141        0.913   1.501   0.000   2.414
  142        0.913   1.501   0.000   2.414
  143        0.912   1.501   0.000   2.413
  144        0.912   1.499   0.000   2.412
  145        0.065   6.010   0.000   6.075
--------------------------------------------------
tot        178.697 538.012 133.547 850.256



 magnetization (x)

# of ion       s       p       d       tot
------------------------------------------
    1        0.023   0.031   4.301   4.356
    2        0.024   0.032   4.294   4.350
    3        0.023   0.031   4.301   4.355
    4        0.023   0.031   4.304   4.358
    5        0.023   0.031   4.302   4.357
    6        0.024   0.031   4.302   4.357
    7        0.023   0.032   4.300   4.354
    8        0.023   0.031   4.303   4.357
    9        0.022   0.033   4.275   4.330
   10        0.024   0.032   4.297   4.352
   11        0.022   0.031   4.301   4.355
   12        0.025   0.022   3.735   3.783
   13        0.024   0.032   4.298   4.354
   14        0.023   0.031   4.301   4.356
   15        0.023   0.032   4.299   4.354
   16        0.025   0.031   4.300   4.356
   17        0.024   0.031   4.301   4.356
   18        0.023   0.031   4.303   4.358
   19        0.023   0.031   4.303   4.358
   20        0.023   0.031   4.304   4.358
   21        0.023   0.031   4.303   4.357
   22        0.023   0.031   4.303   4.357
   23        0.023   0.031   4.303   4.358
   24        0.023   0.031   4.303   4.357
   25        0.007   0.096   0.000   0.103
   26        0.007   0.088   0.000   0.095
   27        0.007   0.099   0.000   0.107
   28        0.007   0.095   0.000   0.102
   29        0.008   0.102   0.000   0.109
   30        0.008   0.113   0.000   0.121
   31        0.007   0.084   0.000   0.091
   32        0.008   0.096   0.000   0.103
   33        0.011   0.128   0.000   0.139
   34        0.010   0.105   0.000   0.115
   35        0.011   0.130   0.000   0.141
   36        0.011   0.124   0.000   0.135
   37        0.009   0.109   0.000   0.118
   38        0.011   0.125   0.000   0.136
   39        0.011   0.131   0.000   0.142
   40        0.011   0.122   0.000   0.133
   41        0.007   0.096   0.000   0.103
   42        0.007   0.091   0.000   0.098
   43        0.007   0.095   0.000   0.102
   44        0.007   0.097   0.000   0.104
   45        0.008   0.102   0.000   0.110
   46        0.008   0.105   0.000   0.112
   47        0.007   0.093   0.000   0.101
   48        0.008   0.098   0.000   0.106
   49        0.011   0.127   0.000   0.139
   50        0.011   0.126   0.000   0.138
   51        0.011   0.124   0.000   0.135
   52        0.011   0.122   0.000   0.133
   53        0.011   0.124   0.000   0.135
   54        0.011   0.127   0.000   0.138
   55        0.011   0.127   0.000   0.138
   56        0.012   0.127   0.000   0.139
   57        0.008   0.104   0.000   0.112
   58        0.007   0.094   0.000   0.101
   59        0.008   0.098   0.000   0.105
   60        0.003   0.027   0.000   0.030
   61        0.008   0.090   0.000   0.098
   62        0.008   0.109   0.000   0.117
   63        0.007   0.092   0.000   0.099
   64        0.003   0.045   0.000   0.048
   65        0.011   0.125   0.000   0.137
   66        0.011   0.124   0.000   0.135
   67        0.009   0.107   0.000   0.116
   68        0.010   0.094   0.000   0.104
   69        0.011   0.131   0.000   0.142
   70        0.009   0.089   0.000   0.099
   71        0.011   0.129   0.000   0.140
   72        0.010   0.117   0.000   0.127
   73        0.007   0.097   0.000   0.104
   74        0.007   0.094   0.000   0.101
   75        0.007   0.093   0.000   0.100
   76        0.007   0.093   0.000   0.101
   77        0.008   0.095   0.000   0.103
   78        0.008   0.104   0.000   0.111
   79        0.007   0.092   0.000   0.099
   80        0.007   0.096   0.000   0.103
   81        0.011   0.125   0.000   0.136
   82        0.011   0.131   0.000   0.142
   83        0.011   0.125   0.000   0.136
   84        0.011   0.125   0.000   0.137
   85        0.011   0.124   0.000   0.135
   86        0.011   0.126   0.000   0.138
   87        0.011   0.129   0.000   0.141
   88        0.011   0.131   0.000   0.143
   89        0.007   0.097   0.000   0.105
   90        0.007   0.096   0.000   0.103
   91        0.007   0.096   0.000   0.103
   92        0.007   0.095   0.000   0.102
   93        0.008   0.101   0.000   0.109
   94        0.008   0.100   0.000   0.108
   95        0.008   0.099   0.000   0.107
   96        0.008   0.096   0.000   0.104
   97        0.011   0.130   0.000   0.141
   98        0.011   0.128   0.000   0.139
   99        0.011   0.126   0.000   0.137
  100        0.011   0.125   0.000   0.136
  101        0.011   0.126   0.000   0.137
  102        0.011   0.124   0.000   0.135
  103        0.011   0.128   0.000   0.140
  104        0.011   0.127   0.000   0.138
  105        0.007   0.095   0.000   0.103
  106        0.007   0.096   0.000   0.103
  107        0.007   0.097   0.000   0.104
  108        0.007   0.097   0.000   0.104
  109        0.008   0.103   0.000   0.110
  110        0.008   0.101   0.000   0.109
  111        0.008   0.099   0.000   0.106
  112        0.008   0.098   0.000   0.106
  113        0.011   0.128   0.000   0.139
  114        0.011   0.128   0.000   0.139
  115        0.011   0.126   0.000   0.137
  116        0.011   0.127   0.000   0.138
  117        0.011   0.127   0.000   0.138
  118        0.011   0.123   0.000   0.134
  119        0.011   0.128   0.000   0.139
  120        0.011   0.127   0.000   0.139
  121        0.004   0.013   0.000   0.017
  122        0.003   0.012   0.000   0.015
  123        0.004   0.013   0.000   0.017
  124        0.004   0.013   0.000   0.017
  125        0.004   0.013   0.000   0.017
  126        0.003   0.012   0.000   0.016
  127        0.004   0.013   0.000   0.017
  128        0.004   0.013   0.000   0.016
  129        0.003   0.011   0.000   0.015
  130        0.004   0.012   0.000   0.016
  131        0.004   0.013   0.000   0.017
  132        0.004   0.014   0.000   0.018
  133        0.004   0.013   0.000   0.017
  134        0.004   0.012   0.000   0.016
  135        0.004   0.013   0.000   0.017
  136        0.004   0.012   0.000   0.015
  137        0.004   0.013   0.000   0.017
  138        0.004   0.013   0.000   0.017
  139        0.004   0.013   0.000   0.017
  140        0.004   0.013   0.000   0.017
  141        0.004   0.013   0.000   0.017
  142        0.004   0.013   0.000   0.017
  143        0.004   0.013   0.000   0.017
  144        0.004   0.013   0.000   0.016
  145        0.000   0.000   0.000   0.001
--------------------------------------------------
tot          1.527  11.528 102.634 115.690

    FORLOC:  cpu time      0.0155: real time      0.0156
    FORNL :  cpu time      2.1290: real time      2.1428
    STRESS:  cpu time      6.2596: real time      6.2958
    FORCOR:  cpu time      0.1091: real time      0.1096
    OFIELD:  cpu time      0.0003: real time      0.0003

  FORCE on cell =-STRESS in cart. coord.  units (eV):
  Direction    XX          YY          ZZ          XY          YZ          ZX
  --------------------------------------------------------------------------------------
  Alpha Z  2952.23722  2952.23722  2952.23722
  Ewald  -22823.93656-18253.10364-21417.82139   114.23033   -24.08865  -214.69524
  Hartree 10012.17553 15467.02931 11987.81506    69.59952   -14.20450  -120.21808
  E(xc)   -5544.10572 -5547.60595 -5547.31668     0.09037    -0.04498    -0.20935
  Local   -4102.51891-14326.41533 -7469.60352  -183.13213    38.99701   318.09502
  n-local -1706.37115 -1836.55132 -1749.09887     1.21858     0.26867    -2.37517
  augment  3988.64200  4011.45536  3981.01254     0.82030    -0.61329     7.95780
  Kinetic 17234.63950 17540.28218 17273.16503    -1.34819    -1.81998     8.08299
  Fock        0.00000     0.00000     0.00000     0.00000     0.00000     0.00000
  -------------------------------------------------------------------------------------
  Total      10.76191     7.32783    10.38937     1.47880    -1.50572    -3.36203
  in kB      10.00505     6.81249     9.65871     1.37480    -1.39983    -3.12559
  external pressure =        8.83 kB  Pullay stress =        0.00 kB


 VOLUME and BASIS-vectors are now :
 -----------------------------------------------------------------------------
  energy-cutoff  :      520.00
  volume of cell :     1723.38
      direct lattice vectors                 reciprocal lattice vectors
     9.962489075 -0.000069663 -0.000154526     0.100376522  0.000000553 -0.000000819
    -0.000097698 17.717656860 -0.000226836     0.000000395  0.056440872 -0.000000631
     0.000079674  0.000109170  9.763519320     0.000001589  0.000001311  0.102422084

  length of vectors
     9.962489076 17.717656862  9.763519321     0.100376522  0.056440872  0.102422084


 FORCES acting on ions:
    Electron-Ion                     Ewald-Force                    Non-Local-Force
 -----------------------------------------------------------------------------------------------
   -.407E+02 0.116E+02 0.291E+02   0.409E+02 -.119E+02 -.309E+02   -.190E+00 0.359E+00 0.185E+01
   0.910E+02 0.442E+02 0.445E+02   -.926E+02 -.449E+02 -.462E+02   0.162E+01 0.688E+00 0.164E+01
   0.107E+02 0.215E+02 -.331E+02   -.108E+02 -.209E+02 0.351E+02   0.178E+00 -.565E+00 -.206E+01
   -.406E+02 0.121E+02 -.221E+02   0.409E+02 -.115E+02 0.246E+02   -.315E+00 -.593E+00 -.250E+01
   -.453E+02 0.124E+02 0.385E+02   0.454E+02 -.126E+02 -.402E+02   -.144E+00 0.221E+00 0.171E+01
   0.630E+02 0.152E+02 0.416E+02   -.631E+02 -.159E+02 -.427E+02   0.801E-01 0.664E+00 0.108E+01
   0.489E+02 0.431E+02 -.401E+02   -.472E+02 -.417E+02 0.413E+02   -.176E+01 -.148E+01 -.123E+01
   -.461E+02 0.503E+01 -.329E+02   0.460E+02 -.514E+01 0.348E+02   0.722E-01 0.112E+00 -.188E+01
   0.268E+02 -.119E+02 -.240E+02   -.282E+02 0.126E+02 0.235E+02   0.135E+01 -.737E+00 0.531E+00
   0.652E+02 -.232E+02 0.293E+02   -.660E+02 0.241E+02 -.312E+02   0.764E+00 -.865E+00 0.188E+01
   0.226E+02 -.259E+02 -.387E+02   -.228E+02 0.249E+02 0.412E+02   0.242E+00 0.103E+01 -.245E+01
   -.115E+03 -.266E+01 -.120E+02   0.118E+03 0.315E+01 0.144E+02   -.239E+01 -.478E+00 -.236E+01
   0.148E+02 0.432E+01 0.856E+02   -.149E+02 -.383E+01 -.873E+02   0.147E+00 -.477E+00 0.168E+01
   0.584E+02 -.217E+02 0.495E+02   -.583E+02 0.222E+02 -.504E+02   -.117E+00 -.509E+00 0.902E+00
   0.527E+02 -.338E+02 -.358E+02   -.515E+02 0.325E+02 0.367E+02   -.125E+01 0.129E+01 -.914E+00
   -.918E+02 0.227E+01 -.481E+02   0.907E+02 -.213E+01 0.494E+02   0.114E+01 -.143E+00 -.134E+01
   -.511E+02 -.631E+01 0.370E+02   0.510E+02 0.667E+01 -.386E+02   0.319E-01 -.372E+00 0.162E+01
   0.439E+02 0.140E+01 0.281E+02   -.440E+02 -.150E+01 -.301E+02   0.138E+00 0.101E+00 0.199E+01
   0.438E+02 -.127E+01 -.321E+02   -.439E+02 0.119E+01 0.340E+02   0.343E-01 0.831E-01 -.186E+01
   -.361E+02 -.136E+02 -.212E+02   0.366E+02 0.128E+02 0.237E+02   -.403E+00 0.751E+00 -.257E+01
   -.456E+02 -.142E+02 0.337E+02   0.457E+02 0.142E+02 -.354E+02   -.107E+00 0.120E-02 0.175E+01
   0.465E+02 0.809E-01 0.348E+02   -.465E+02 -.231E+00 -.367E+02   0.691E-01 0.149E+00 0.188E+01
   0.458E+02 -.862E+00 -.337E+02   -.458E+02 0.768E+00 0.356E+02   0.262E-01 0.927E-01 -.194E+01
   -.457E+02 -.111E+02 -.336E+02   0.456E+02 0.110E+02 0.354E+02   0.167E+00 0.925E-01 -.179E+01
   0.194E+03 0.445E+01 -.583E+02   -.200E+03 -.424E+01 0.914E+02   0.643E+01 -.216E+00 -.331E+02
   -.182E+03 0.327E+02 -.460E+02   0.189E+03 -.325E+02 0.784E+02   -.678E+01 -.172E+00 -.323E+02
   -.190E+03 -.694E+01 0.526E+02   0.196E+03 0.848E+01 -.850E+02   -.570E+01 -.153E+01 0.324E+02
   0.192E+03 0.281E+01 0.592E+02   -.199E+03 -.294E+01 -.926E+02   0.676E+01 0.132E+00 0.334E+02
   -.580E+02 0.502E+01 -.167E+03   0.299E+02 -.496E+01 0.184E+03   0.281E+02 -.599E-01 -.171E+02
   0.726E+02 -.295E+01 -.160E+03   -.454E+02 0.339E+01 0.176E+03   -.272E+02 -.441E+00 -.160E+02
   0.254E+02 0.306E+02 0.144E+03   0.352E+01 -.293E+02 -.161E+03   -.290E+02 -.131E+01 0.166E+02
   -.486E+02 0.129E+01 0.170E+03   0.196E+02 -.139E+01 -.187E+03   0.290E+02 0.101E+00 0.173E+02
   0.102E+03 0.644E+02 0.659E+02   -.923E+02 -.874E+02 -.827E+02   -.975E+01 0.230E+02 0.168E+02
   -.177E+02 -.335E+01 0.761E+01   0.289E+01 0.239E+02 -.202E+02   0.148E+02 -.205E+02 0.126E+02
   -.102E+03 0.555E+02 -.803E+02   0.929E+02 -.779E+02 0.982E+02   0.896E+01 0.224E+02 -.179E+02
   0.907E+02 -.534E+02 -.684E+02   -.806E+02 0.766E+02 0.855E+02   -.101E+02 -.232E+02 -.170E+02
   -.113E+03 -.969E+02 -.301E+02   0.103E+03 0.125E+03 0.457E+02   0.954E+01 -.282E+02 -.157E+02
   0.995E+02 0.626E+02 -.666E+02   -.899E+02 -.856E+02 0.834E+02   -.962E+01 0.230E+02 -.168E+02
   0.106E+03 -.492E+02 0.728E+02   -.961E+02 0.710E+02 -.900E+02   -.945E+01 -.219E+02 0.172E+02
   -.968E+02 0.763E+02 0.637E+02   0.873E+02 -.993E+02 -.812E+02   0.947E+01 0.230E+02 0.175E+02
   0.196E+03 0.455E+01 -.574E+02   -.203E+03 -.461E+01 0.905E+02   0.643E+01 0.682E-01 -.331E+02
   -.195E+03 0.150E+02 -.640E+02   0.202E+03 -.153E+02 0.979E+02   -.697E+01 0.284E+00 -.339E+02
   -.193E+03 0.112E+02 0.559E+02   0.200E+03 -.116E+02 -.893E+02   -.700E+01 0.406E+00 0.335E+02
   0.192E+03 0.503E+01 0.584E+02   -.199E+03 -.523E+01 -.915E+02   0.683E+01 0.199E+00 0.330E+02
   -.576E+02 0.479E+01 -.168E+03   0.296E+02 -.473E+01 0.185E+03   0.280E+02 -.680E-01 -.171E+02
   0.641E+02 0.363E+01 -.173E+03   -.365E+02 -.363E+01 0.191E+03   -.276E+02 -.245E-02 -.175E+02
   0.420E+02 0.190E+02 0.180E+03   -.131E+02 -.202E+02 -.198E+03   -.289E+02 0.121E+01 0.182E+02
   -.536E+02 0.377E+01 0.165E+03   0.250E+02 -.382E+01 -.182E+03   0.286E+02 0.492E-01 0.170E+02
   0.103E+03 0.645E+02 0.659E+02   -.938E+02 -.875E+02 -.827E+02   -.944E+01 0.230E+02 0.167E+02
   -.885E+02 -.486E+02 0.718E+02   0.785E+02 0.712E+02 -.884E+02   0.100E+02 -.226E+02 0.166E+02
   -.100E+03 0.670E+02 -.707E+02   0.902E+02 -.902E+02 0.879E+02   0.100E+02 0.232E+02 -.171E+02
   0.967E+02 -.563E+02 -.647E+02   -.870E+02 0.795E+02 0.814E+02   -.978E+01 -.232E+02 -.166E+02
   -.103E+03 -.585E+02 -.728E+02   0.925E+02 0.823E+02 0.895E+02   0.999E+01 -.238E+02 -.166E+02
   0.986E+02 0.625E+02 -.674E+02   -.889E+02 -.854E+02 0.843E+02   -.970E+01 0.229E+02 -.169E+02
   0.102E+03 -.537E+02 0.728E+02   -.924E+02 0.766E+02 -.901E+02   -.977E+01 -.229E+02 0.173E+02
   -.947E+02 0.698E+02 0.594E+02   0.845E+02 -.928E+02 -.751E+02   0.102E+02 0.230E+02 0.157E+02
   0.225E+03 -.294E+01 -.428E+02   -.232E+03 0.324E+01 0.742E+02   0.699E+01 -.294E+00 -.314E+02
   -.192E+03 -.223E+02 -.577E+02   0.198E+03 0.224E+02 0.907E+02   -.679E+01 -.147E+00 -.330E+02
   -.187E+03 0.696E+01 0.533E+02   0.192E+03 -.819E+01 -.858E+02   -.544E+01 0.123E+01 0.326E+02
   0.820E+02 -.248E+02 0.394E+02   -.814E+02 0.267E+02 -.719E+02   -.649E+00 -.188E+01 0.326E+02
   -.651E+02 -.321E+02 -.561E+02   0.396E+02 0.353E+02 0.652E+02   0.255E+02 -.319E+01 -.912E+01
   0.655E+02 0.278E+01 -.160E+03   -.379E+02 -.329E+01 0.176E+03   -.275E+02 0.516E+00 -.158E+02
   0.435E+02 -.243E+02 0.159E+03   -.144E+02 0.254E+02 -.175E+03   -.290E+02 -.108E+01 0.162E+02
   -.141E+02 0.586E+01 0.166E+03   -.179E+02 -.680E+01 -.185E+03   0.320E+02 0.927E+00 0.185E+02
   0.114E+03 0.650E+02 0.632E+02   -.103E+03 -.867E+02 -.783E+02   -.117E+02 0.217E+02 0.151E+02
   -.975E+02 -.768E+02 0.531E+02   0.874E+02 0.100E+03 -.690E+02   0.101E+02 -.232E+02 0.158E+02
   -.112E+03 0.942E+02 -.327E+02   0.102E+03 -.122E+03 0.485E+02   0.931E+01 0.277E+02 -.159E+02
   0.489E+02 -.399E+02 -.908E+02   -.371E+02 0.610E+02 0.112E+03   -.118E+02 -.211E+02 -.208E+02
   -.103E+03 -.548E+02 -.815E+02   0.944E+02 0.770E+02 0.995E+02   0.874E+01 -.223E+02 -.180E+02
   0.373E+02 0.459E+02 -.802E+02   -.274E+02 -.678E+02 0.100E+03   -.993E+01 0.219E+02 -.202E+02
   0.117E+03 -.707E+02 0.573E+02   -.107E+03 0.929E+02 -.728E+02   -.103E+02 -.221E+02 0.155E+02
   -.783E+02 0.158E+02 0.659E+02   0.685E+02 -.380E+02 -.830E+02   0.979E+01 0.222E+02 0.171E+02
   0.214E+03 0.290E+01 -.687E+02   -.222E+03 -.274E+01 0.103E+03   0.841E+01 -.160E+00 -.340E+02
   -.191E+03 -.118E+02 -.541E+02   0.196E+03 0.114E+02 0.870E+02   -.569E+01 0.375E+00 -.329E+02
   -.192E+03 -.888E+01 0.556E+02   0.199E+03 0.925E+01 -.891E+02   -.688E+01 -.369E+00 0.334E+02
   0.197E+03 0.305E+01 0.558E+02   -.206E+03 -.403E+01 -.900E+02   0.894E+01 0.986E+00 0.342E+02
   -.609E+02 0.218E+01 -.189E+03   0.337E+02 -.331E+01 0.205E+03   0.272E+02 0.113E+01 -.163E+02
   0.629E+02 -.435E+01 -.173E+03   -.349E+02 0.448E+01 0.190E+03   -.279E+02 -.126E+00 -.174E+02
   0.409E+02 -.144E+02 0.172E+03   -.117E+02 0.148E+02 -.190E+03   -.293E+02 -.399E+00 0.176E+02
   -.584E+02 0.300E+01 0.178E+03   0.303E+02 -.329E+01 -.198E+03   0.281E+02 0.291E+00 0.198E+02
   0.106E+03 0.841E+02 0.530E+02   -.962E+02 -.108E+03 -.684E+02   -.101E+02 0.243E+02 0.154E+02
   -.103E+03 -.725E+02 0.660E+02   0.941E+02 0.955E+02 -.823E+02   0.942E+01 -.230E+02 0.163E+02
   -.102E+03 0.568E+02 -.762E+02   0.923E+02 -.803E+02 0.934E+02   0.100E+02 0.236E+02 -.171E+02
   0.962E+02 -.794E+02 -.656E+02   -.867E+02 0.103E+03 0.824E+02   -.947E+01 -.240E+02 -.168E+02
   -.102E+03 -.677E+02 -.691E+02   0.918E+02 0.908E+02 0.860E+02   0.977E+01 -.231E+02 -.169E+02
   0.901E+02 0.745E+02 -.673E+02   -.802E+02 -.980E+02 0.838E+02   -.984E+01 0.235E+02 -.165E+02
   0.114E+03 -.874E+02 0.490E+02   -.105E+03 0.112E+03 -.636E+02   -.896E+01 -.247E+02 0.146E+02
   -.928E+02 0.493E+02 0.678E+02   0.830E+02 -.716E+02 -.840E+02   0.978E+01 0.223E+02 0.163E+02
   0.191E+03 -.566E+01 -.568E+02   -.197E+03 0.535E+01 0.897E+02   0.641E+01 0.313E+00 -.329E+02
   -.194E+03 -.270E+00 -.594E+02   0.201E+03 0.360E+00 0.925E+02   -.655E+01 -.888E-01 -.331E+02
   -.193E+03 -.488E+00 0.580E+02   0.199E+03 0.536E+00 -.911E+02   -.648E+01 -.459E-01 0.331E+02
   0.194E+03 -.218E+01 0.594E+02   -.201E+03 0.240E+01 -.928E+02   0.664E+01 -.224E+00 0.334E+02
   -.573E+02 -.532E+01 -.169E+03   0.290E+02 0.539E+01 0.186E+03   0.283E+02 -.711E-01 -.170E+02
   0.552E+02 0.725E+00 -.167E+03   -.268E+02 -.708E+00 0.184E+03   -.284E+02 -.164E-01 -.169E+02
   0.538E+02 0.140E+00 0.167E+03   -.253E+02 0.251E-01 -.184E+03   -.285E+02 -.164E+00 0.171E+02
   -.495E+02 -.491E+01 0.170E+03   0.206E+02 0.544E+01 -.187E+03   0.290E+02 -.532E+00 0.171E+02
   0.105E+03 0.556E+02 0.665E+02   -.960E+02 -.784E+02 -.834E+02   -.941E+01 0.227E+02 0.170E+02
   -.101E+03 -.566E+02 0.683E+02   0.917E+02 0.793E+02 -.853E+02   0.959E+01 -.228E+02 0.170E+02
   -.101E+03 0.573E+02 -.694E+02   0.910E+02 -.802E+02 0.865E+02   0.961E+01 0.230E+02 -.171E+02
   0.100E+03 -.610E+02 -.694E+02   -.907E+02 0.838E+02 0.864E+02   -.963E+01 -.228E+02 -.170E+02
   -.100E+03 -.574E+02 -.708E+02   0.907E+02 0.802E+02 0.880E+02   0.961E+01 -.229E+02 -.172E+02
   0.975E+02 0.565E+02 -.717E+02   -.877E+02 -.796E+02 0.889E+02   -.977E+01 0.231E+02 -.172E+02
   0.101E+03 -.621E+02 0.673E+02   -.914E+02 0.849E+02 -.842E+02   -.970E+01 -.228E+02 0.169E+02
   -.101E+03 0.598E+02 0.665E+02   0.910E+02 -.828E+02 -.835E+02   0.970E+01 0.230E+02 0.169E+02
   0.195E+03 -.620E+01 -.577E+02   -.202E+03 0.625E+01 0.909E+02   0.645E+01 -.452E-01 -.332E+02
   -.194E+03 0.136E+01 -.574E+02   0.201E+03 -.123E+01 0.906E+02   -.656E+01 -.123E+00 -.331E+02
   -.193E+03 -.328E+00 0.571E+02   0.200E+03 0.332E+00 -.902E+02   -.665E+01 -.466E-02 0.331E+02
   0.192E+03 -.540E+01 0.577E+02   -.198E+03 0.542E+01 -.907E+02   0.667E+01 -.254E-01 0.330E+02
   -.567E+02 -.239E+01 -.165E+03   0.288E+02 0.184E+01 0.182E+03   0.280E+02 0.548E+00 -.169E+02
   0.564E+02 -.374E+00 -.167E+03   -.281E+02 0.433E+00 0.183E+03   -.283E+02 -.589E-01 -.169E+02
   0.527E+02 0.210E-01 0.168E+03   -.241E+02 -.378E-01 -.186E+03   -.286E+02 0.181E-01 0.172E+02
   -.533E+02 -.641E+01 0.165E+03   0.247E+02 0.640E+01 -.182E+03   0.287E+02 0.115E-01 0.169E+02
   0.102E+03 0.525E+02 0.723E+02   -.927E+02 -.752E+02 -.893E+02   -.933E+01 0.227E+02 0.170E+02
   -.102E+03 -.566E+02 0.720E+02   0.921E+02 0.792E+02 -.892E+02   0.958E+01 -.226E+02 0.172E+02
   -.100E+03 0.599E+02 -.666E+02   0.903E+02 -.831E+02 0.835E+02   0.971E+01 0.232E+02 -.169E+02
   0.102E+03 -.623E+02 -.697E+02   -.931E+02 0.852E+02 0.869E+02   -.929E+01 -.229E+02 -.171E+02
   -.100E+03 -.607E+02 -.667E+02   0.903E+02 0.838E+02 0.836E+02   0.969E+01 -.231E+02 -.169E+02
   0.100E+03 0.589E+02 -.621E+02   -.904E+02 -.823E+02 0.787E+02   -.987E+01 0.234E+02 -.166E+02
   0.999E+02 -.624E+02 0.725E+02   -.902E+02 0.852E+02 -.898E+02   -.975E+01 -.228E+02 0.173E+02
   -.102E+03 0.571E+02 0.696E+02   0.922E+02 -.799E+02 -.866E+02   0.961E+01 0.228E+02 0.170E+02
   0.687E+02 0.360E+01 0.430E+01   -.699E+02 -.383E+01 -.178E+01   0.128E+01 0.244E+00 -.264E+01
   -.611E+02 0.289E+02 -.139E+02   0.622E+02 -.289E+02 0.166E+02   -.116E+01 0.397E-01 -.276E+01
   -.683E+02 0.307E+00 0.664E+01   0.678E+02 0.694E+00 -.814E+01   0.486E+00 -.105E+01 0.157E+01
   0.629E+02 0.420E+01 -.340E+01   -.636E+02 -.406E+01 0.103E+01   0.699E+00 -.146E+00 0.247E+01
   0.679E+02 0.408E+01 0.434E+01   -.688E+02 -.393E+01 -.185E+01   0.969E+00 -.155E+00 -.261E+01
   -.618E+02 0.131E+02 0.845E+01   0.634E+02 -.131E+02 -.670E+01   -.167E+01 0.245E-01 -.182E+01
   -.655E+02 0.539E+01 -.783E+01   0.660E+02 -.529E+01 0.525E+01   -.423E+00 -.956E-01 0.270E+01
   0.636E+02 0.267E+01 -.385E+01   -.643E+02 -.265E+01 0.127E+01   0.683E+00 -.275E-01 0.270E+01
   0.882E+02 -.974E+00 -.163E+01   -.919E+02 0.882E+00 0.290E+01   0.388E+01 0.988E-01 -.133E+01
   -.630E+02 -.187E+02 0.768E+00   0.644E+02 0.188E+02 0.180E+01   -.140E+01 -.183E+00 -.270E+01
   -.673E+02 -.278E+00 0.588E+01   0.670E+02 -.766E+00 -.754E+01   0.332E+00 0.110E+01 0.174E+01
   0.182E+02 -.656E+01 0.193E+02   -.174E+02 0.676E+01 -.215E+02   -.821E+00 -.187E+00 0.228E+01
   0.724E+02 0.137E+01 -.522E+01   -.738E+02 -.153E+01 0.744E+01   0.147E+01 0.167E+00 -.232E+01
   -.665E+02 -.108E+02 0.604E+01   0.681E+02 0.111E+02 -.361E+01   -.159E+01 -.281E+00 -.254E+01
   -.649E+02 -.510E+01 -.847E+01   0.654E+02 0.483E+01 0.579E+01   -.519E+00 0.282E+00 0.281E+01
   0.530E+02 -.444E+01 -.235E+02   -.530E+02 0.446E+01 0.201E+02   0.486E-01 -.213E-01 0.362E+01
   0.671E+02 -.282E+01 0.308E+01   -.683E+02 0.294E+01 -.744E+00   0.118E+01 -.123E+00 -.244E+01
   -.663E+02 0.189E+01 0.333E+01   0.673E+02 -.191E+01 -.870E+00   -.967E+00 0.238E-01 -.257E+01
   -.664E+02 -.350E-01 -.471E+01   0.671E+02 0.157E-01 0.225E+01   -.743E+00 0.208E-01 0.258E+01
   0.641E+02 -.351E+01 -.512E+01   -.648E+02 0.341E+01 0.274E+01   0.749E+00 0.109E+00 0.250E+01
   0.669E+02 -.485E+01 0.578E+01   -.679E+02 0.500E+01 -.321E+01   0.102E+01 -.150E+00 -.269E+01
   -.668E+02 0.212E+00 0.443E+01   0.678E+02 -.215E+00 -.196E+01   -.101E+01 0.408E-02 -.259E+01
   -.656E+02 -.338E+00 -.395E+01   0.663E+02 0.298E+00 0.149E+01   -.718E+00 0.422E-01 0.257E+01
   0.667E+02 -.222E+01 -.347E+01   -.672E+02 0.217E+01 0.846E+00   0.577E+00 0.577E-01 0.274E+01
   -.403E+02 -.405E+01 0.231E+02   0.425E+02 0.362E+01 -.233E+02   -.212E+01 0.272E+00 0.115E+00
 -----------------------------------------------------------------------------------------------
   0.791E+00 0.250E+01 0.615E+01   0.639E-12 0.162E-11 -.529E-12   -.759E+00 -.252E+01 -.618E+01


 POSITION                                       TOTAL-FORCE (eV/Angst)
 -----------------------------------------------------------------------------------
      2.73009      1.44919      4.68091        -0.002549     -0.010209      0.003301
      2.22917      4.37416      2.23629        -0.005643     -0.002988      0.009186
      7.20927      4.43769      0.20416        -0.006561      0.010743      0.003454
      7.71430      1.45988      2.64225         0.000743      0.003698      0.000122
      2.73670      1.45272      9.55594         0.000755      0.001573     -0.000092
      2.22954      4.39222      7.15457        -0.004921      0.001422      0.007242
      7.24607      4.43561      5.09122        -0.008244     -0.000138      0.003383
      7.70627      1.47507      7.52602        -0.000532      0.003084      0.003047
      2.68251      7.41544      4.80672        -0.001409      0.009161      0.000310
      2.25939     10.37347      2.21547         0.002155     -0.000989     -0.005572
      7.23110     10.35926      0.20324         0.003061      0.001985      0.000891
      7.82332      7.41121      2.66490         0.004045      0.007987      0.002489
      2.72644      7.41240      9.51158         0.001731      0.014226      0.001876
      2.24509     10.38396      7.12885         0.000622      0.001782     -0.011280
      7.26394     10.34490      5.08652         0.002349      0.004696     -0.000816
      7.76022      7.39449      7.48977         0.006104      0.002554      0.004899
      2.73933     13.28791      4.66800         0.003327     -0.008657     -0.008283
      2.25066     16.23845      2.23078        -0.000274     -0.001820     -0.003630
      7.22727     16.24390      0.20338         0.000599      0.001795     -0.001090
      7.72305     13.30923      2.64415         0.004169     -0.001888     -0.000931
      2.74024     13.30827      9.54861         0.006204     -0.002376     -0.008678
      2.24324     16.23877      7.11206         0.001043     -0.001838     -0.001581
      7.22497     16.24183      5.08805         0.001758     -0.001114     -0.001630
      7.71251     13.29503      7.52496         0.002398     -0.002037      0.000985
      1.21346      1.46338      3.48506        -0.003902     -0.002357      0.002740
      3.80058      4.45532      1.07500         0.001382      0.010933      0.007407
      8.71075      4.43292      1.41569        -0.006981      0.006103      0.002254
      6.17770      1.46655      3.82201        -0.000796      0.000197      0.000388
      4.43187      1.47189      0.74005        -0.000443      0.002468      0.000662
      0.54586      4.38911      3.15922        -0.009523      0.001311      0.000600
      5.49878      4.45754      4.15504        -0.006799      0.012999      0.002092
      9.42063      1.45693      1.68145        -0.000162      0.005477     -0.000992
      1.69397      0.26485      1.25813        -0.001116      0.001063     -0.000405
      3.23819      5.59962      3.79036        -0.012847     -0.013475      0.014465
      8.29449      3.14938      3.61444        -0.006203      0.001678      0.001351
      6.65993      2.67425      1.17117        -0.001124      0.002684      0.000348
      8.29125      5.53748      3.70216        -0.007822      0.002532      0.004335
      6.66523      0.27303      1.17084         0.000974      0.001802     -0.001101
      1.69344      2.66023      1.26036         0.000365      0.000818      0.003626
      3.28847      3.20900      3.72429        -0.002734     -0.009575      0.009913
      1.21012      1.46132      8.37444         0.000322      0.001579      0.002205
      3.76376      4.38371      5.98115        -0.000188     -0.014473      0.012979
      8.76472      4.40517      6.28647        -0.006061      0.001031     -0.000596
      6.18315      1.46840      8.70744        -0.001842      0.000110      0.000284
      4.43224      1.47079      5.62266         0.000089     -0.004699      0.001628
      0.54015      4.41131      8.09403        -0.006683      0.005033      0.001060
      5.51180      4.39942      8.99326        -0.003275      0.001785      0.003542
      9.41022      1.46469      6.58556        -0.000696     -0.000680      0.000464
      1.68143      0.26888      6.14194         0.001200      0.002748      0.001153
      3.27788      5.62412      8.59932        -0.001399      0.005932      0.007570
      8.26333      3.21998      8.51117        -0.002531      0.000188      0.002160
      6.66494      2.67373      6.04756        -0.001945      0.001884     -0.002754
      8.28116      5.62723      8.49790        -0.004170      0.000592      0.002569
      6.66612      0.27392      6.05350         0.001227      0.001114      0.001810
      1.67767      2.66705      6.15306        -0.001635      0.002281      0.005449
      3.26474      3.22936      8.62467        -0.007522      0.005053      0.011835
      1.26307      7.40272      3.51090        -0.007010      0.005913      0.001049
      3.79163     10.36330      1.03471        -0.000094      0.005708     -0.007501
      8.73850     10.36239      1.41718         0.005864      0.002676      0.001217
      6.20045      7.41559      3.86177        -0.001100      0.008973      0.012102
      4.47585      7.46860      0.56803        -0.004568      0.026271      0.005575
      0.57620     10.38233      3.15934         0.002446      0.000538      0.000341
      5.54227     10.35620      4.15524         0.004723      0.004422     -0.003332
      9.52175      7.36489      1.64605        -0.002405     -0.007551      0.003038
      1.82054      6.19682      1.31573         0.001612      0.002285      0.006129
      3.28661     11.50398      3.70050         0.001725     -0.005357     -0.004512
      8.31935      9.24615      3.70246         0.002782      0.003328      0.003012
      6.67753      8.61941      1.05154         0.009292      0.010489     -0.008222
      8.32405     11.63331      3.62025         0.002912      0.002650      0.000460
      6.58754      6.17896      1.07879        -0.018421      0.003100      0.000953
      1.78344      8.58520      1.28438        -0.006907      0.001855     -0.004681
      3.35753      9.08619      3.70636         0.012027     -0.010186     -0.008013
      1.15735      7.39158      8.40991         0.001213      0.002344      0.000562
      3.75466     10.32252      5.92768        -0.002378     -0.006594     -0.007347
      8.77920     10.36916      6.28229         0.003234      0.000074     -0.002579
      6.21344      7.38750      8.58347         0.001922      0.004254      0.009999
      4.44390      7.36724      5.64549         0.000095     -0.004652      0.005936
      0.55890     10.36790      8.08411         0.003057      0.000309     -0.003712
      5.52893     10.37087      8.98010         0.002517      0.000601     -0.001435
      9.42619      7.37643      6.54412        -0.004643     -0.002156     -0.002643
      1.69508      6.18259      6.20486        -0.000756      0.000020      0.003044
      3.29492     11.56566      8.57615         0.003246      0.004186     -0.005334
      8.30171      9.14624      8.48970         0.001523      0.002158      0.000317
      6.68108      8.59860      6.07277        -0.001386      0.003594      0.009203
      8.28027     11.55393      8.50907         0.001319     -0.000625     -0.001133
      6.69149      6.18915      6.06086        -0.001627     -0.000054      0.004435
      1.68247      8.58501      6.19299        -0.004380     -0.001044     -0.002456
      3.27764      9.17378      8.56783        -0.001033      0.004779     -0.004250
      1.22572     13.29396      3.47543         0.001642      0.000669     -0.002438
      3.77497     16.24572      1.04333        -0.000152      0.001405     -0.000868
      8.74906     16.24719      1.39036         0.001370      0.002058     -0.001745
      6.18834     13.30475      3.82414         0.002084      0.000528     -0.001627
      4.43510     13.30592      0.73793         0.001524      0.001339     -0.002227
      0.54834     16.24527      3.17777         0.001565      0.000177     -0.001991
      5.52708     16.24380      4.13594         0.001347      0.000874     -0.003116
      9.42525     13.32113      1.67922         0.002456     -0.001447     -0.000957
      1.69423     12.10969      1.24295        -0.000003     -0.000590     -0.003693
      3.29256     17.43598      3.70182        -0.000241     -0.001928     -0.000890
      8.27847     15.04823      3.61974         0.000823      0.000576     -0.001769
      6.66726     14.50379      1.17297         0.002374      0.001423     -0.001118
      8.27756     17.44443      3.61878         0.001197      0.000520     -0.001021
      6.66425     12.10365      1.17617         0.001346      0.001189     -0.000078
      1.69729     14.50620      1.25487         0.002715      0.000840     -0.002222
      3.29785     15.03819      3.70230         0.001652     -0.001962     -0.002536
      1.21424     13.30802      8.36490         0.002438     -0.002471     -0.003432
      3.76965     16.24202      5.92977        -0.000393     -0.001570     -0.002800
      8.74842     16.24434      6.27002         0.000478     -0.000100     -0.001007
      6.19187     13.30185      8.71047         0.001623      0.000470     -0.000753
      4.43534     13.27753      5.61463         0.001429     -0.003334     -0.003595
      0.54379     16.24559      8.05973         0.000830      0.000887     -0.001143
      5.52979     16.24386      9.01108         0.000090      0.001415     -0.000062
      9.41529     13.30478      6.57756         0.000857      0.002059     -0.003385
      1.68564     12.10497      6.13879         0.000341     -0.000758     -0.002747
      3.29697     17.44256      8.57836         0.000954      0.001026     -0.001252
      8.27413     15.04527      8.49762         0.001454     -0.000004     -0.000345
      6.65810     14.50036      6.05611        -0.000524     -0.000677      0.000116
      8.27234     17.44414      8.49771         0.000560      0.000214     -0.001187
      6.68025     12.10343      6.05509         0.001447     -0.000288      0.000756
      1.68621     14.50123      6.13357         0.001869     -0.000315     -0.002135
      3.29607     15.04744      8.57750         0.000732      0.001497     -0.001550
      0.95291      1.45852      1.98141        -0.002065      0.001503      0.000690
      4.00611      4.39377      4.47979        -0.005976     -0.007790      0.008438
      8.99362      4.38358      2.91679        -0.005012      0.004068      0.000887
      5.93317      1.47397      0.45009         0.001171      0.001758      0.000814
      0.94668      1.46456      6.87141        -0.002298      0.002442      0.000927
      4.02366      4.42927      9.31961        -0.005297      0.005989      0.009904
      9.00179      4.41522      7.79236        -0.004150      0.001132      0.004122
      5.93385      1.47223      5.32809        -0.000138     -0.002190      0.000134
      1.02166      7.38821      1.99760        -0.001683      0.001214      0.004880
      4.04318     10.32153      4.42926         0.003351     -0.008794     -0.011764
      9.02427     10.40058      2.91786         0.006931      0.001422     -0.001902
      6.00227      7.42032      0.32034         0.000543      0.013445     -0.015523
      0.94080      7.38095      6.90171         0.007990     -0.002183     -0.000642
      4.03714     10.36371      9.29012         0.002894      0.003436     -0.000710
      9.02034     10.35922      7.78689         0.003239     -0.000234      0.002025
      5.95299      7.39537      5.36064        -0.001402      0.003780     -0.015924
      0.95917     13.30641      1.97175         0.002748     -0.001126     -0.003661
      4.02837     16.23807      4.42561         0.002555     -0.002371     -0.002787
      9.00917     16.24598      2.89419        -0.000331      0.000790     -0.002186
      5.93650     13.30237      0.45226         0.003271      0.001282     -0.000590
      0.95197     13.30679      6.86189        -0.000331      0.000401     -0.004414
      4.03149     16.24418      9.30230         0.002095      0.001577     -0.001464
      9.00438     16.24486      7.77472        -0.000906     -0.000061     -0.001670
      5.93906     13.29395      5.32892         0.002083     -0.000623     -0.002849
      4.53910      6.88864      2.61006         0.031943     -0.149691     -0.010781
 -----------------------------------------------------------------------------------
    total drift:                                0.032263     -0.020227     -0.026464


--------------------------------------------------------------------------------------------------------



  FREE ENERGIE OF THE ION-ELECTRON SYSTEM (eV)
  ---------------------------------------------------
  free  energy   TOTEN  =     -1020.01573529 eV

  energy  without entropy=    -1020.01573529  energy(sigma->0) =    -1020.01573529



--------------------------------------------------------------------------------------------------------


    POTLOK:  cpu time      0.5568: real time      0.5590


--------------------------------------------------------------------------------------------------------




--------------------------------------------------------------------------------------------------------


 writing wavefunctions
     LOOP+:  cpu time    146.7467: real time    172.5156
    4ORBIT:  cpu time      0.0000: real time      0.0000



 total charge

# of ion       s       p       d       tot
------------------------------------------
    1        0.271   6.323   5.546  12.141
    2        0.272   6.323   5.550  12.145
    3        0.270   6.322   5.546  12.138
    4        0.272   6.325   5.546  12.144
    5        0.272   6.326   5.548  12.146
    6        0.272   6.326   5.548  12.146
    7        0.270   6.320   5.546  12.136
    8        0.270   6.322   5.544  12.136
    9        0.275   6.331   5.572  12.178
   10        0.272   6.324   5.549  12.144
   11        0.271   6.324   5.548  12.144
   12        0.202   6.207   5.931  12.340
   13        0.274   6.329   5.553  12.156
   14        0.272   6.327   5.550  12.148
   15        0.271   6.324   5.549  12.144
   16        0.280   6.339   5.558  12.177
   17        0.270   6.320   5.543  12.133
   18        0.271   6.324   5.546  12.140
   19        0.271   6.324   5.545  12.140
   20        0.272   6.326   5.547  12.145
   21        0.272   6.326   5.547  12.145
   22        0.271   6.323   5.545  12.139
   23        0.271   6.323   5.545  12.139
   24        0.270   6.322   5.544  12.137
   25        1.567   3.603   0.000   5.171
   26        1.566   3.596   0.000   5.162
   27        1.566   3.603   0.000   5.169
   28        1.568   3.602   0.000   5.169
   29        1.565   3.598   0.000   5.163
   30        1.564   3.600   0.000   5.164
   31        1.565   3.594   0.000   5.159
   32        1.566   3.597   0.000   5.163
   33        1.564   3.570   0.000   5.134
   34        1.564   3.583   0.000   5.147
   35        1.565   3.568   0.000   5.133
   36        1.564   3.568   0.000   5.132
   37        1.568   3.573   0.000   5.140
   38        1.564   3.570   0.000   5.134
   39        1.564   3.570   0.000   5.134
   40        1.565   3.569   0.000   5.134
   41        1.568   3.604   0.000   5.171
   42        1.568   3.605   0.000   5.174
   43        1.568   3.604   0.000   5.172
   44        1.568   3.603   0.000   5.171
   45        1.565   3.597   0.000   5.161
   46        1.565   3.598   0.000   5.163
   47        1.566   3.597   0.000   5.163
   48        1.565   3.599   0.000   5.164
   49        1.564   3.569   0.000   5.133
   50        1.564   3.567   0.000   5.131
   51        1.564   3.568   0.000   5.133
   52        1.564   3.567   0.000   5.131
   53        1.565   3.567   0.000   5.131
   54        1.564   3.568   0.000   5.132
   55        1.565   3.568   0.000   5.132
   56        1.564   3.572   0.000   5.136
   57        1.566   3.601   0.000   5.167
   58        1.567   3.602   0.000   5.169
   59        1.566   3.602   0.000   5.168
   60        1.564   3.638   0.000   5.202
   61        1.561   3.637   0.000   5.199
   62        1.564   3.598   0.000   5.162
   63        1.565   3.600   0.000   5.165
   64        1.568   3.606   0.000   5.174
   65        1.564   3.565   0.000   5.129
   66        1.564   3.568   0.000   5.132
   67        1.567   3.576   0.000   5.143
   68        1.566   3.582   0.000   5.147
   69        1.565   3.567   0.000   5.132
   70        1.564   3.575   0.000   5.139
   71        1.564   3.568   0.000   5.132
   72        1.564   3.558   0.000   5.122
   73        1.569   3.602   0.000   5.172
   74        1.567   3.605   0.000   5.172
   75        1.568   3.605   0.000   5.174
   76        1.572   3.617   0.000   5.189
   77        1.563   3.595   0.000   5.158
   78        1.565   3.598   0.000   5.163
   79        1.566   3.596   0.000   5.162
   80        1.567   3.608   0.000   5.176
   81        1.564   3.574   0.000   5.138
   82        1.564   3.570   0.000   5.134
   83        1.565   3.567   0.000   5.132
   84        1.564   3.571   0.000   5.135
   85        1.564   3.569   0.000   5.133
   86        1.564   3.572   0.000   5.136
   87        1.564   3.575   0.000   5.140
   88        1.564   3.569   0.000   5.133
   89        1.567   3.603   0.000   5.170
   90        1.568   3.603   0.000   5.170
   91        1.567   3.604   0.000   5.171
   92        1.568   3.602   0.000   5.170
   93        1.565   3.598   0.000   5.163
   94        1.565   3.597   0.000   5.162
   95        1.565   3.599   0.000   5.164
   96        1.566   3.598   0.000   5.163
   97        1.564   3.569   0.000   5.133
   98        1.564   3.569   0.000   5.134
   99        1.564   3.570   0.000   5.134
  100        1.564   3.570   0.000   5.134
  101        1.564   3.569   0.000   5.134
  102        1.564   3.569   0.000   5.133
  103        1.564   3.571   0.000   5.135
  104        1.564   3.568   0.000   5.132
  105        1.568   3.604   0.000   5.171
  106        1.568   3.603   0.000   5.170
  107        1.568   3.604   0.000   5.171
  108        1.567   3.603   0.000   5.171
  109        1.565   3.596   0.000   5.161
  110        1.565   3.597   0.000   5.162
  111        1.565   3.598   0.000   5.163
  112        1.565   3.599   0.000   5.164
  113        1.564   3.569   0.000   5.133
  114        1.564   3.570   0.000   5.134
  115        1.564   3.568   0.000   5.132
  116        1.564   3.567   0.000   5.131
  117        1.564   3.568   0.000   5.132
  118        1.564   3.568   0.000   5.132
  119        1.564   3.568   0.000   5.132
  120        1.564   3.570   0.000   5.134
  121        0.912   1.501   0.000   2.413
  122        0.914   1.503   0.000   2.417
  123        0.913   1.504   0.000   2.416
  124        0.913   1.501   0.000   2.413
  125        0.913   1.502   0.000   2.414
  126        0.912   1.497   0.000   2.409
  127        0.913   1.504   0.000   2.417
  128        0.912   1.500   0.000   2.412
  129        0.915   1.508   0.000   2.422
  130        0.912   1.499   0.000   2.411
  131        0.913   1.503   0.000   2.416
  132        0.915   1.517   0.000   2.431
  133        0.915   1.510   0.000   2.425
  134        0.912   1.499   0.000   2.411
  135        0.913   1.504   0.000   2.418
  136        0.913   1.504   0.000   2.417
  137        0.913   1.501   0.000   2.413
  138        0.913   1.501   0.000   2.414
  139        0.912   1.501   0.000   2.413
  140        0.913   1.501   0.000   2.414
  141        0.913   1.501   0.000   2.414
  142        0.913   1.501   0.000   2.414
  143        0.912   1.501   0.000   2.413
  144        0.912   1.499   0.000   2.412
  145        0.065   6.010   0.000   6.075
--------------------------------------------------
tot        178.697 538.012 133.547 850.256



 magnetization (x)

# of ion       s       p       d       tot
------------------------------------------
    1        0.023   0.031   4.301   4.356
    2        0.024   0.032   4.294   4.350
    3        0.023   0.031   4.301   4.355
    4        0.023   0.031   4.304   4.358
    5        0.023   0.031   4.302   4.357
    6        0.024   0.031   4.302   4.357
    7        0.023   0.032   4.300   4.354
    8        0.023   0.031   4.303   4.357
    9        0.022   0.033   4.275   4.330
   10        0.024   0.032   4.297   4.352
   11        0.022   0.031   4.301   4.355
   12        0.025   0.022   3.735   3.783
   13        0.024   0.032   4.298   4.354
   14        0.023   0.031   4.301   4.356
   15        0.023   0.032   4.299   4.354
   16        0.025   0.031   4.300   4.356
   17        0.024   0.031   4.301   4.356
   18        0.023   0.031   4.303   4.358
   19        0.023   0.031   4.303   4.358
   20        0.023   0.031   4.304   4.358
   21        0.023   0.031   4.303   4.357
   22        0.023   0.031   4.303   4.357
   23        0.023   0.031   4.303   4.358
   24        0.023   0.031   4.303   4.357
   25        0.007   0.096   0.000   0.103
   26        0.007   0.088   0.000   0.095
   27        0.007   0.099   0.000   0.107
   28        0.007   0.095   0.000   0.102
   29        0.008   0.102   0.000   0.109
   30        0.008   0.113   0.000   0.121
   31        0.007   0.084   0.000   0.091
   32        0.008   0.096   0.000   0.103
   33        0.011   0.128   0.000   0.139
   34        0.010   0.105   0.000   0.115
   35        0.011   0.130   0.000   0.141
   36        0.011   0.124   0.000   0.135
   37        0.009   0.109   0.000   0.118
   38        0.011   0.125   0.000   0.136
   39        0.011   0.131   0.000   0.142
   40        0.011   0.122   0.000   0.133
   41        0.007   0.096   0.000   0.103
   42        0.007   0.091   0.000   0.098
   43        0.007   0.095   0.000   0.102
   44        0.007   0.097   0.000   0.104
   45        0.008   0.102   0.000   0.110
   46        0.008   0.105   0.000   0.112
   47        0.007   0.093   0.000   0.101
   48        0.008   0.098   0.000   0.106
   49        0.011   0.127   0.000   0.139
   50        0.011   0.126   0.000   0.138
   51        0.011   0.124   0.000   0.135
   52        0.011   0.122   0.000   0.133
   53        0.011   0.124   0.000   0.135
   54        0.011   0.127   0.000   0.138
   55        0.011   0.127   0.000   0.138
   56        0.012   0.127   0.000   0.139
   57        0.008   0.104   0.000   0.112
   58        0.007   0.094   0.000   0.101
   59        0.008   0.098   0.000   0.105
   60        0.003   0.027   0.000   0.030
   61        0.008   0.090   0.000   0.098
   62        0.008   0.109   0.000   0.117
   63        0.007   0.092   0.000   0.099
   64        0.003   0.045   0.000   0.048
   65        0.011   0.125   0.000   0.137
   66        0.011   0.124   0.000   0.135
   67        0.009   0.107   0.000   0.116
   68        0.010   0.094   0.000   0.104
   69        0.011   0.131   0.000   0.142
   70        0.009   0.089   0.000   0.099
   71        0.011   0.129   0.000   0.140
   72        0.010   0.117   0.000   0.127
   73        0.007   0.097   0.000   0.104
   74        0.007   0.094   0.000   0.101
   75        0.007   0.093   0.000   0.100
   76        0.007   0.093   0.000   0.101
   77        0.008   0.095   0.000   0.103
   78        0.008   0.104   0.000   0.111
   79        0.007   0.092   0.000   0.099
   80        0.007   0.096   0.000   0.103
   81        0.011   0.125   0.000   0.136
   82        0.011   0.131   0.000   0.142
   83        0.011   0.125   0.000   0.136
   84        0.011   0.125   0.000   0.137
   85        0.011   0.124   0.000   0.135
   86        0.011   0.126   0.000   0.138
   87        0.011   0.129   0.000   0.141
   88        0.011   0.131   0.000   0.143
   89        0.007   0.097   0.000   0.105
   90        0.007   0.096   0.000   0.103
   91        0.007   0.096   0.000   0.103
   92        0.007   0.095   0.000   0.102
   93        0.008   0.101   0.000   0.109
   94        0.008   0.100   0.000   0.108
   95        0.008   0.099   0.000   0.107
   96        0.008   0.096   0.000   0.104
   97        0.011   0.130   0.000   0.141
   98        0.011   0.128   0.000   0.139
   99        0.011   0.126   0.000   0.137
  100        0.011   0.125   0.000   0.136
  101        0.011   0.126   0.000   0.137
  102        0.011   0.124   0.000   0.135
  103        0.011   0.128   0.000   0.140
  104        0.011   0.127   0.000   0.138
  105        0.007   0.095   0.000   0.103
  106        0.007   0.096   0.000   0.103
  107        0.007   0.097   0.000   0.104
  108        0.007   0.097   0.000   0.104
  109        0.008   0.103   0.000   0.110
  110        0.008   0.101   0.000   0.109
  111        0.008   0.099   0.000   0.106
  112        0.008   0.098   0.000   0.106
  113        0.011   0.128   0.000   0.139
  114        0.011   0.128   0.000   0.139
  115        0.011   0.126   0.000   0.137
  116        0.011   0.127   0.000   0.138
  117        0.011   0.127   0.000   0.138
  118        0.011   0.123   0.000   0.134
  119        0.011   0.128   0.000   0.139
  120        0.011   0.127   0.000   0.139
  121        0.004   0.013   0.000   0.017
  122        0.003   0.012   0.000   0.015
  123        0.004   0.013   0.000   0.017
  124        0.004   0.013   0.000   0.017
  125        0.004   0.013   0.000   0.017
  126        0.003   0.012   0.000   0.016
  127        0.004   0.013   0.000   0.017
  128        0.004   0.013   0.000   0.016
  129        0.003   0.011   0.000   0.015
  130        0.004   0.012   0.000   0.016
  131        0.004   0.013   0.000   0.017
  132        0.004   0.014   0.000   0.018
  133        0.004   0.013   0.000   0.017
  134        0.004   0.012   0.000   0.016
  135        0.004   0.013   0.000   0.017
  136        0.004   0.012   0.000   0.015
  137        0.004   0.013   0.000   0.017
  138        0.004   0.013   0.000   0.017
  139        0.004   0.013   0.000   0.017
  140        0.004   0.013   0.000   0.017
  141        0.004   0.013   0.000   0.017
  142        0.004   0.013   0.000   0.017
  143        0.004   0.013   0.000   0.017
  144        0.004   0.013   0.000   0.016
  145        0.000   0.000   0.000   0.001
--------------------------------------------------
tot          1.527  11.528 102.634 115.690


 total amount of memory used by VASP MPI-rank0   264821. kBytes
=======================================================================

   base      :      30000. kBytes
   nonlr-proj:      30732. kBytes
   fftplans  :       9535. kBytes
   grid      :      26700. kBytes
   one-center:       1150. kBytes
   wavefun   :     166704. kBytes

  
  
 General timing and accounting informations for this job:
 ========================================================
  
                  Total CPU time used (sec):      207.854
                            User time (sec):      200.853
                          System time (sec):        7.001
                         Elapsed time (sec):      250.238
  
                   Maximum memory used (kb):      878140.
                   Average memory used (kb):          N/A
  
                          Minor page faults:       119084
                          Major page faults:           38
                 Voluntary context switches:       112355
