32
Lattice="10.813096906 0.013216069 1.347e-06 0.007330025 6.018062688 -2.091e-06 7.08e-07 -1.825e-06 6.437589242" Properties=species:S:1:pos:R:3:initial_charges:R:1:bader_charge:R:1:magmoms:R:1:forces:R:3 magmom=15.0000009 stress="8.095237336270587e-06 2.808054955734878e-05 1.8724527377649774e-08 2.808054955734878e-05 -6.124168754316653e-05 5.617358213294932e-08 1.8724527377649774e-08 5.617358213294932e-08 -6.260857804173496e-05" free_energy=-198.74101391 energy=-198.74101391 pbc="T T T"
Ni       0.32715000       5.10468000      -0.00001000       1.25073500       1.25073500       1.79400000      -0.00555500       0.00470600       0.00000000
Fe       5.69266000       5.14497000       0.00000000       1.36396400       1.36396400       3.71400000      -0.01009200      -0.00653400       0.00000200
Fe       2.96185000       0.86449000       3.21879000       1.36267400       1.36267400       3.71400000      -0.00047400      -0.00520800       0.00000100
Mn       8.40150000       0.94062000       3.21880000       1.44103500       1.44103500       4.57700000      -0.00678800       0.00004100      -0.00000300
Na       0.32670000       2.00338000       1.60108000       0.86667400       0.86667400      -0.00000000      -0.00243900      -0.00230400      -0.00965300
Na       5.71941000       1.99379000       1.59462000       0.86804300       0.86804300       0.00000000       0.01030000      -0.00566400      -0.00425400
Na       3.02115000       3.99259000       1.61515000       0.86802900       0.86802900       0.00000000       0.00195100      -0.00095800       0.00991300
Na       8.43648000       4.07655000       1.57292000       0.86824300       0.86824300       0.00000000       0.00393300       0.00932500       0.01133300
Na       3.02116000       3.99259000       4.82243000       0.86802900       0.86802900       0.00000000       0.00195400      -0.00095800      -0.00990700
Na       8.43648000       4.07655000       4.86466000       0.86824200       0.86824200       0.00000000       0.00393000       0.00932600      -0.01134000
Na       0.32670000       2.00338000       4.83652000       0.86669100       0.86669100      -0.00000000      -0.00244000      -0.00230700       0.00965300
Na       5.71941000       1.99379000       4.84298000       0.86804300       0.86804300       0.00000000       0.01030100      -0.00566900       0.00425500
O        3.68044000       5.43019000      -0.00000000      -1.77063700      -1.77063700       0.02900000       0.00477800      -0.00088600       0.00000200
O        9.20505000       5.53795000      -0.00000000      -1.74075300      -1.74075300       0.03500000       0.01072600      -0.01235500      -0.00000300
O        0.95022000       0.57016000       3.21879000      -1.77203500      -1.77203500       0.02900000       0.00758000       0.00416500       0.00000000
O        6.36413000       0.54960000       3.21880000      -1.79175900      -1.79175900       0.02800000       0.00401600       0.00019100      -0.00000400
O        0.71755000       4.26316000       1.83456000      -1.73904900      -1.73904900       0.02500000      -0.00594700      -0.00056500       0.00062200
O        6.11280000       4.24452000       1.83747000      -1.79634700      -1.79634700       0.02700000       0.00063300      -0.00935300       0.00136000
O        3.39034000       1.74292000       5.06478000      -1.79796000      -1.79796000       0.02600000       0.01095600       0.00622100      -0.00481100
O        8.84289000       1.85148000       5.07230000      -1.81309900      -1.81309900       0.02100000      -0.01072400       0.00243700       0.00588100
O        3.39034000       1.74292000       1.37281000      -1.76557400      -1.76557400       0.02600000       0.01095400       0.00622000       0.00481000
O        8.84289000       1.85148000       1.36530000      -1.77982600      -1.77982600       0.02100000      -0.01072900       0.00243400      -0.00588400
O        0.71756000       4.26316000       4.60302000      -1.77059500      -1.77059500       0.02500000      -0.00594400      -0.00056300      -0.00061500
O        6.11280000       4.24452000       4.60012000      -1.76515600      -1.76515600       0.02700000       0.00062800      -0.00934500      -0.00136400
O        4.03675000       5.19981000       3.21879000      -1.76668300      -1.76668300       0.03300000      -0.00693000      -0.01318100       0.00000000
O        9.44132000       5.20803000       3.21879000      -1.78726900      -1.78726900       0.03200000      -0.00051600      -0.00201900       0.00000300
O        1.31608000       0.76017000       0.00000000      -1.73776500      -1.73776500       0.03300000       0.00293900       0.01072900      -0.00000300
O        6.80790000       0.77597000       0.00000000      -1.76590200      -1.76590200       0.03600000      -0.01213200       0.00771700      -0.00000400
Si       0.26750000       5.08513000       3.21879000       4.00000000       4.00000000       0.00600000       0.01213700       0.01246500      -0.00000600
Si       5.67508000       5.07301000       3.21879000       4.00000000       4.00000000       0.00800000       0.00344000       0.00487300       0.00001000
Si       2.95435000       0.90141000       0.00000000       4.00000000       4.00000000       0.00700000      -0.00807000      -0.01550100       0.00000100
Si       8.44187000       0.98880000       0.00000000       4.00000000       4.00000000       0.00900000      -0.01237700       0.01252200       0.00000500
