KPOINTS created by Atomic Simulation Environment
0
Gamma
3 4 4
0 0 0
