INCAR created by Atomic Simulation Environment
 ENCUT = 520.000000
 SIGMA = 0.050000
 TIME = 0.050000
 NUPDOWN = 119.000000
 EDIFF = 1.00e-06
 EDIFFG = -2.00e-02
 SYMPREC = 1.00e-07
 ALGO = all
 GGA = PE
 PREC = accurate
 IBRION = 2
 ISIF = 2
 ISMEAR = 0
 ISPIN = 2
 ISYM = 0
 KPAR = 2
 LMAXMIX = 4
 LORBIT = 12
 NELM = 300
 NELMIN = 8
 NSW = 1
 NCORE = 4
 LASPH = .TRUE.
 LCHARG = .TRUE.
 LDAU = .TRUE.
 LWAVE = .TRUE.
 LREAL = auto
 LDAUL = 2 -1 -1 -1
 LDAUU = 5.300 0.000 0.000 0.000
 LDAUJ = 0.000 0.000 0.000 0.000
 MAGMOM = 1*4.3562 1*4.3500 1*4.3508 1*4.3572 1*4.3570 1*4.3577 1*4.3532 1*4.3570 1*4.3450 1*4.3540 1*4.3542 1*3.7840 1*4.3570 1*4.3563 1*4.3538 1*4.3570 1*4.3568 2*4.3580 1*4.3578 2*4.3570 1*4.3580 1*4.3570 1*0.1025 1*0.0870 1*0.1057 1*0.1020 1*0.1080 1*0.1233 1*0.0853 1*0.1042 1*0.1393 1*0.1187 1*0.1413 1*0.1333 1*0.1175 1*0.1352 1*0.1417 1*0.1298 1*0.1030 1*0.0948 1*0.1025 1*0.1040 1*0.1082 1*0.1117 1*0.0983 1*0.1077 1*0.1390 1*0.1342 1*0.1367 1*0.1332 1*0.1362 1*0.1382 1*0.1373 1*0.1352 1*0.1110 1*0.0990 1*0.1045 1*0.0310 1*0.0970 1*0.1158 1*0.0987 1*0.0490 1*0.1413 1*0.1372 1*0.1155 1*0.1037 1*0.1427 1*0.0975 1*0.1427 1*0.1333 1*0.1050 1*0.1022 1*0.1007 1*0.0990 1*0.1050 1*0.1103 1*0.0997 1*0.1070 1*0.1367 1*0.1398 1*0.1368 1*0.1373 1*0.1353 1*0.1387 1*0.1393 1*0.1390 1*0.1037 2*0.1030 1*0.1018 2*0.1080 1*0.1060 1*0.1048 1*0.1403 1*0.1397 1*0.1372 1*0.1358 1*0.1378 1*0.1347 1*0.1407 1*0.1383 2*0.1030 2*0.1040 1*0.1088 1*0.1090 1*0.1060 1*0.1063 1*0.1387 1*0.1397 1*0.1373 1*0.1388 1*0.1387 1*0.1338 1*0.1390 1*0.1383 1*0.0168 1*0.0153 1*0.0170 2*0.0162 1*0.0152 1*0.0170 1*0.0160 1*0.0150 1*0.0167 3*0.0170 1*0.0158 1*0.0170 1*0.0150 1*0.0162 2*0.0170 2*0.0168 2*0.0170 1*0.0160 1*0.0010
