 vasp.6.4.0 14Feb23 (build Mar 11 2024 14:58:30) complex                         
 executed on             epyc9004 date 2024.12.14  21:56:17
 running  192 mpi-ranks, on    2 nodes
 distrk:  each k-point on   96 cores,    2 groups
 distr:  one band on NCORE=   4 cores,   24 groups


--------------------------------------------------------------------------------------------------------


 INCAR:
   ENCUT = 520.000000
   SIGMA = 0.050000
   TIME = 0.050000
   NUPDOWN = 119.000000
   EDIFF = 1.00e-06
   EDIFFG = -2.00e-02
   SYMPREC = 1.00e-07
   ALGO = all
   GGA = PE
   PREC = accurate
   IBRION = 2
   ISIF = 2
   ISMEAR = 0
   ISPIN = 2
   ISYM = 0
   KPAR = 2
   LMAXMIX = 4
   LORBIT = 12
   NELM = 300
   NELMIN = 8
   NSW = 1
   NCORE = 4
   LASPH = .TRUE.
   LCHARG = .TRUE.
   LDAU = .TRUE.
   LWAVE = .TRUE.
   LREAL = auto
   LDAUL = 2 -1 -1 -1
   LDAUU = 5.300 0.000 0.000 0.000
   LDAUJ = 0.000 0.000 0.000 0.000
   MAGMOM = 1*4.3562 1*4.3500 1*4.3508 1*4.3572 1*4.3570 1*4.3577 1*4.3532 1*4.3570 1*4.3450 1*4.3540 1*4.3542 1*3.7840 1*4.3570 1*4.3563 1*4.3538 1*4.3570 1*4.3568 2*4.3580 1*4.3578 2*4.3570 1*4.3580 1*4.3570 1*0.1025 1*0.0870 1*0.1057 1*0.1020 1*0.1080 1*0.1233 1*0.0853 1*0.1042 1*0.1393 1*0.1187 1*0.1413 1*0.1333 1*0.1175 1*0.1352 1*0.1417 1*0.1298 1*0.1030 1*0.0948 1*0.1025 1*0.1040 1*0.1082 1*0.1117 1*0.0983 1*0.1077 1*0.1390 1*0.1342 1*0.1367 1*0.1332 1*0.1362 1*0.1382 1*0.1373 1*0.1352 1*0.1110 1*0.0990 1*0.1045 1*0.0310 1*0.0970 1*0.1158 1*0.0987 1*0.0490 1*0.1413 1*0.1372 1*0.1155 1*0.1037 1*0.1427 1*0.0975 1*0.1427 1*0.1333 1*0.1050 1*0.1022 1*0.1007 1*0.0990 1*0.1050 1*0.1103 1*0.0997 1*0.1070 1*0.1367 1*0.1398 1*0.1368 1*0.1373 1*0.1353 1*0.1387 1*0.1393 1*0.1390 1*0.1037 2*0.1030 1*0.1018 2*0.1080 1*0.1060 1*0.1048 1*0.1403 1*0.1397 1*0.1372 1*0.1358 1*0.1378 1*0.1347 1*0.1407 1*0.1383 2*0.1030 2*0.1040 1*0.1088 1*0.1090 1*0.1060 1*0.1063 1*0.1387 1*0.1397 1*0.1373 1*0.1388 1*0.1387 1*0.1338 1*0.1390 1*0.1383 1*0.0168 1*0.0153 1*0.0170 2*0.0162 1*0.0152 1*0.0170 1*0.0160 1*0.0150 1*0.0167 3*0.0170 1*0.0158 1*0.0170 1*0.0150 1*0.0162 2*0.0170 2*0.0168 2*0.0170 1*0.0160 1*0.0010

 POTCAR:    PAW_PBE Fe_pv 02Aug2007               
 POTCAR:    PAW_PBE O 08Apr2002                   
 POTCAR:    PAW_PBE P 06Sep2000                   
 POTCAR:    PAW_PBE Na_pv 19Sep2006               
 -----------------------------------------------------------------------------
|                                                                             |
|           W    W    AA    RRRRR   N    N  II  N    N   GGGG   !!!           |
|           W    W   A  A   R    R  NN   N  II  NN   N  G    G  !!!           |
|           W    W  A    A  R    R  N N  N  II  N N  N  G       !!!           |
|           W WW W  AAAAAA  RRRRR   N  N N  II  N  N N  G  GGG   !            |
|           WW  WW  A    A  R   R   N   NN  II  N   NN  G    G                |
|           W    W  A    A  R    R  N    N  II  N    N   GGGG   !!!           |
|                                                                             |
|     For optimal performance we recommend to set                             |
|       NCORE = 2 up to number-of-cores-per-socket                            |
|     NCORE specifies how many cores store one orbital (NPAR=cpu/NCORE).      |
|     This setting can greatly improve the performance of VASP for DFT.       |
|     The default, NCORE=1 might be grossly inefficient on modern             |
|     multi-core architectures or massively parallel machines. Do your        |
|     own testing! More info at https://www.vasp.at/wiki/index.php/NCORE      |
|     Unfortunately you need to use the default for GW and RPA                |
|     calculations (for HF NCORE is supported but not extensively tested      |
|     yet).                                                                   |
|                                                                             |
 -----------------------------------------------------------------------------

 POTCAR:    PAW_PBE Fe_pv 02Aug2007               
   VRHFIN =Fe:  3pd7s1                                                                              
   LEXCH  = PE                                                                                      
   EATOM  =  2457.4239 eV,  180.6156 Ry                                                             
                                                                                                    
   TITEL  = PAW_PBE Fe_pv 02Aug2007                                                                 
   LULTRA =        F    use ultrasoft PP ?                                                          
   IUNSCR =        1    unscreen: 0-lin 1-nonlin 2-no                                               
   RPACOR =    1.750    partial core radius                                                         
   POMASS =   55.847; ZVAL   =   14.000    mass and valenz                                          
   RCORE  =    2.200    outmost cutoff radius                                                       
   RWIGS  =    2.200; RWIGS  =    1.164    wigner-seitz radius (au A)                               
   ENMAX  =  293.238; ENMIN  =  219.928 eV                                                          
   ICORE  =        3    local potential                                                             
   LCOR   =        T    correct aug charges                                                         
   LPAW   =        T    paw PP                                                                      
   EAUG   =  578.342                                                                                
   DEXC   =    0.000                                                                                
   RMAX   =    2.249    core radius for proj-oper                                                   
   RAUG   =    1.300    factor for augmentation sphere                                              
   RDEP   =    2.296    radius for radial grids                                                     
   RDEPT  =    1.766    core radius for aug-charge                                                  
                                                                                                    
   Atomic configuration                                                                             
    8 entries                                                                                       
     n  l   j            E        occ.                                                              
     1  0  0.50     -6993.8440   2.0000                                                             
     2  0  0.50      -814.6047   2.0000                                                             
     2  1  1.50      -693.3689   6.0000                                                             
     3  0  0.50       -89.4732   2.0000                                                             
     3  1  1.50       -55.6373   6.0000                                                             
     3  2  2.50        -3.8151   7.0000                                                             
     4  0  0.50        -4.2551   1.0000                                                             
     4  3  2.50        -1.3606   0.0000                                                             
   Description                                                                                      
     l       E           TYP  RCUT    TYP  RCUT                                                     
     1    -55.6372668     23  2.000                                                                 
     1     -5.4423304     23  2.000                                                                 
     2     -3.8151096     23  2.200                                                                 
     2     -5.1756922     23  2.200                                                                 
     0     -4.2550951     23  2.200                                                                 
     0     27.2116520     23  2.200                                                                 
     3     -1.3605826     23  2.200                                                                 
  local pseudopotential read in
  partial core-charges read in
  partial kinetic energy density read in
  atomic valenz-charges read in
  non local Contribution for L=           1  read in
    real space projection operators read in
  non local Contribution for L=           1  read in
    real space projection operators read in
  non local Contribution for L=           2  read in
    real space projection operators read in
  non local Contribution for L=           2  read in
    real space projection operators read in
  non local Contribution for L=           0  read in
    real space projection operators read in
  non local Contribution for L=           0  read in
    real space projection operators read in
    PAW grid and wavefunctions read in

   number of l-projection  operators is LMAX  =           6
   number of lm-projection operators is LMMAX =          18

 POTCAR:    PAW_PBE O 08Apr2002                   
   VRHFIN =O: s2p4                                                                                  
   LEXCH  = PE                                                                                      
   EATOM  =   432.3788 eV,   31.7789 Ry                                                             
                                                                                                    
   TITEL  = PAW_PBE O 08Apr2002                                                                     
   LULTRA =        F    use ultrasoft PP ?                                                          
   IUNSCR =        1    unscreen: 0-lin 1-nonlin 2-no                                               
   RPACOR =    1.200    partial core radius                                                         
   POMASS =   16.000; ZVAL   =    6.000    mass and valenz                                          
   RCORE  =    1.520    outmost cutoff radius                                                       
   RWIGS  =    1.550; RWIGS  =    0.820    wigner-seitz radius (au A)                               
   ENMAX  =  400.000; ENMIN  =  300.000 eV                                                          
   ICORE  =        2    local potential                                                             
   LCOR   =        T    correct aug charges                                                         
   LPAW   =        T    paw PP                                                                      
   EAUG   =  605.392                                                                                
   DEXC   =    0.000                                                                                
   RMAX   =    1.553    core radius for proj-oper                                                   
   RAUG   =    1.300    factor for augmentation sphere                                              
   RDEP   =    1.550    radius for radial grids                                                     
   RDEPT  =    1.329    core radius for aug-charge                                                  
                                                                                                    
   Atomic configuration                                                                             
    4 entries                                                                                       
     n  l   j            E        occ.                                                              
     1  0  0.50      -514.6923   2.0000                                                             
     2  0  0.50       -23.9615   2.0000                                                             
     2  1  0.50        -9.0305   4.0000                                                             
     3  2  1.50        -9.5241   0.0000                                                             
   Description                                                                                      
     l       E           TYP  RCUT    TYP  RCUT                                                     
     0    -23.9615318     23  1.200                                                                 
     0     -9.5240782     23  1.200                                                                 
     1     -9.0304911     23  1.520                                                                 
     1      8.1634956     23  1.520                                                                 
     2     -9.5240782      7  1.500                                                                 
  local pseudopotential read in
  partial core-charges read in
  partial kinetic energy density read in
  kinetic energy density of atom read in
  atomic valenz-charges read in
  non local Contribution for L=           0  read in
    real space projection operators read in
  non local Contribution for L=           0  read in
    real space projection operators read in
  non local Contribution for L=           1  read in
    real space projection operators read in
  non local Contribution for L=           1  read in
    real space projection operators read in
    PAW grid and wavefunctions read in

   number of l-projection  operators is LMAX  =           4
   number of lm-projection operators is LMMAX =           8

 POTCAR:    PAW_PBE P 06Sep2000                   
   VRHFIN =P : s2p3                                                                                 
   LEXCH  = PE                                                                                      
   EATOM  =   176.0430 eV,   12.9388 Ry                                                             
                                                                                                    
   TITEL  = PAW_PBE P 06Sep2000                                                                     
   LULTRA =        F    use ultrasoft PP ?                                                          
   IUNSCR =        1    unscreen: 0-lin 1-nonlin 2-no                                               
   RPACOR =    1.500    partial core radius                                                         
   POMASS =   30.974; ZVAL   =    5.000    mass and valenz                                          
   RCORE  =    1.900    outmost cutoff radius                                                       
   RWIGS  =    2.330; RWIGS  =    1.233    wigner-seitz radius (au A)                               
   ENMAX  =  255.040; ENMIN  =  191.280 eV                                                          
   ICORE  =        2    local potential                                                             
   LCOR   =        T    correct aug charges                                                         
   LPAW   =        T    paw PP                                                                      
   EAUG   =  342.924                                                                                
   DEXC   =    0.000                                                                                
   RMAX   =    1.935    core radius for proj-oper                                                   
   RAUG   =    1.300    factor for augmentation sphere                                              
   RDEP   =    1.931    radius for radial grids                                                     
   RDEPT  =    1.794    core radius for aug-charge                                                  
                                                                                                    
   Atomic configuration                                                                             
    6 entries                                                                                       
     n  l   j            E        occ.                                                              
     1  0  0.50     -2084.0982   2.0000                                                             
     2  0  0.50      -173.9859   2.0000                                                             
     2  1  1.50      -124.4865   6.0000                                                             
     3  0  0.50       -13.9692   2.0000                                                             
     3  1  0.50        -5.5067   3.0000                                                             
     3  2  1.50        -5.4423   0.0000                                                             
   Description                                                                                      
     l       E           TYP  RCUT    TYP  RCUT                                                     
     0    -13.9691527     23  1.900                                                                 
     0    -11.7794650     23  1.900                                                                 
     1     -5.5066937     23  1.900                                                                 
     1     -0.2556953     23  1.900                                                                 
     2     -5.4423304     23  1.900                                                                 
  local pseudopotential read in
  partial core-charges read in
  partial kinetic energy density read in
  atomic valenz-charges read in
  non local Contribution for L=           0  read in
    real space projection operators read in
  non local Contribution for L=           0  read in
    real space projection operators read in
  non local Contribution for L=           1  read in
    real space projection operators read in
  non local Contribution for L=           1  read in
    real space projection operators read in
    PAW grid and wavefunctions read in

   number of l-projection  operators is LMAX  =           4
   number of lm-projection operators is LMMAX =           8

 POTCAR:    PAW_PBE Na_pv 19Sep2006               
   VRHFIN =Na: p6s1                                                                                 
   LEXCH  = PE                                                                                      
   EATOM  =   766.0439 eV,   56.3026 Ry                                                             
                                                                                                    
   TITEL  = PAW_PBE Na_pv 19Sep2006                                                                 
   LULTRA =        F    use ultrasoft PP ?                                                          
   IUNSCR =        1    unscreen: 0-lin 1-nonlin 2-no                                               
   RPACOR =    1.800    partial core radius                                                         
   POMASS =   22.990; ZVAL   =    7.000    mass and valenz                                          
   RCORE  =    2.200    outmost cutoff radius                                                       
   RWIGS  =    2.200; RWIGS  =    1.164    wigner-seitz radius (au A)                               
   ENMAX  =  259.561; ENMIN  =  194.671 eV                                                          
   ICORE  =        2    local potential                                                             
   LCOR   =        T    correct aug charges                                                         
   LPAW   =        T    paw PP                                                                      
   EAUG   =  368.056                                                                                
   DEXC   =    0.000                                                                                
   RMAX   =    2.245    core radius for proj-oper                                                   
   RAUG   =    1.300    factor for augmentation sphere                                              
   RDEP   =    2.259    radius for radial grids                                                     
   RDEPT  =    1.738    core radius for aug-charge                                                  
                                                                                                    
   Atomic configuration                                                                             
    5 entries                                                                                       
     n  l   j            E        occ.                                                              
     1  0  0.50     -1033.6933   2.0000                                                             
     2  0  0.50       -56.7526   2.0000                                                             
     2  1  1.50       -28.6721   6.0000                                                             
     3  0  0.50        -2.7440   1.0000                                                             
     3  2  1.50        -1.3606   0.0000                                                             
   Description                                                                                      
     l       E           TYP  RCUT    TYP  RCUT                                                     
     1    -28.6720912     23  2.000                                                                 
     1      6.8029130     23  2.000                                                                 
     0     -2.7439560     23  2.200                                                                 
     0     34.0145650     23  2.200                                                                 
     2     -1.3605826     23  2.200                                                                 
  local pseudopotential read in
  partial core-charges read in
  partial kinetic energy density read in
  atomic valenz-charges read in
  non local Contribution for L=           1  read in
    real space projection operators read in
  non local Contribution for L=           1  read in
    real space projection operators read in
  non local Contribution for L=           0  read in
    real space projection operators read in
  non local Contribution for L=           0  read in
    real space projection operators read in
    PAW grid and wavefunctions read in

   number of l-projection  operators is LMAX  =           4
   number of lm-projection operators is LMMAX =           8

 Optimization of the real space projectors (new method)

 maximal supplied QI-value         = 17.01
 optimisation between [QCUT,QGAM] = [ 11.57, 23.30] = [ 37.45,152.03] Ry 
 Optimized for a Real-space Cutoff    1.45 Angstroem

   l    n(q)    QCUT    max X(q) W(low)/X(q) W(high)/X(q)  e(spline) 
   1     10    11.565     4.267    0.91E-04    0.15E-03    0.13E-06
   1     10    11.565     5.750    0.14E-03    0.22E-03    0.20E-06
   2      9    11.565    53.656    0.13E-03    0.57E-04    0.16E-06
   2      9    11.565    49.521    0.13E-03    0.59E-04    0.16E-06
   0     10    11.565    31.246    0.61E-04    0.74E-05    0.89E-07
   0     10    11.565    12.201    0.44E-04    0.68E-05    0.74E-07
 Optimization of the real space projectors (new method)

 maximal supplied QI-value         = 24.76
 optimisation between [QCUT,QGAM] = [ 11.64, 23.27] = [ 37.91,151.63] Ry 
 Optimized for a Real-space Cutoff    1.14 Angstroem

   l    n(q)    QCUT    max X(q) W(low)/X(q) W(high)/X(q)  e(spline) 
   0      8    11.635    20.381    0.10E-03    0.33E-03    0.24E-06
   0      8    11.635    15.268    0.11E-03    0.35E-03    0.26E-06
   1      7    11.635     5.964    0.24E-03    0.31E-03    0.30E-06
   1      7    11.635     5.382    0.22E-03    0.25E-03    0.26E-06
 Optimization of the real space projectors (new method)

 maximal supplied QI-value         = 19.84
 optimisation between [QCUT,QGAM] = [ 11.51, 23.22] = [ 37.09,150.92] Ry 
 Optimized for a Real-space Cutoff    1.21 Angstroem

   l    n(q)    QCUT    max X(q) W(low)/X(q) W(high)/X(q)  e(spline) 
   0      8    11.508   160.924    0.96E-04    0.17E-03    0.52E-07
   0      8    11.508   130.086    0.95E-04    0.17E-03    0.51E-07
   1      8    11.508    74.434    0.16E-03    0.74E-04    0.91E-07
   1      8    11.508    49.120    0.16E-03    0.71E-04    0.89E-07
 Optimization of the real space projectors (new method)

 maximal supplied QI-value         = 17.01
 optimisation between [QCUT,QGAM] = [ 11.57, 23.30] = [ 37.45,152.03] Ry 
 Optimized for a Real-space Cutoff    1.45 Angstroem

   l    n(q)    QCUT    max X(q) W(low)/X(q) W(high)/X(q)  e(spline) 
   1     10    11.565     4.940    0.87E-04    0.13E-03    0.13E-06
   1     10    11.565     6.253    0.13E-03    0.19E-03    0.20E-06
   0     10    11.565    37.438    0.53E-04    0.73E-05    0.79E-07
   0     10    11.565     9.606    0.27E-04    0.60E-05    0.56E-07
  PAW_PBE Fe_pv 02Aug2007               :
 energy of atom  1       EATOM=-2457.4239
 kinetic energy error for atom=    0.0062 (will be added to EATOM!!)
  PAW_PBE O 08Apr2002                   :
 energy of atom  2       EATOM= -432.3788
 kinetic energy error for atom=    0.0208 (will be added to EATOM!!)
  PAW_PBE P 06Sep2000                   :
 energy of atom  3       EATOM= -176.0430
 kinetic energy error for atom=    0.0011 (will be added to EATOM!!)
  PAW_PBE Na_pv 19Sep2006               :
 energy of atom  4       EATOM= -766.0439
 kinetic energy error for atom=    0.0019 (will be added to EATOM!!)


 POSCAR: Fe O  P  Na
  positions in cartesian coordinates
  No initial velocities read in
 exchange correlation table for  LEXCH =        8
   RHO(1)=    0.500       N(1)  =     2000
   RHO(2)=  100.500       N(2)  =     4000



--------------------------------------------------------------------------------------------------------


 ion  position               nearest neighbor table
   1  0.273  0.081  0.480-  25 1.93  45 1.95  98 2.06  40 2.07  49 2.14  55 2.19 125 2.82
   2  0.221  0.247  0.230-  30 1.92  26 1.97  39 2.04  65 2.07  40 2.19  34 2.22 122 2.87
   3  0.725  0.251  0.019-  27 1.93  47 1.95  70 2.05  36 2.09  53 2.16  51 2.16 127 2.81
   4  0.774  0.082  0.270-  28 1.94  32 1.96  35 2.04 101 2.07  38 2.16  36 2.18 124 2.82
   5  0.274  0.082  0.979-  41 1.93  29 1.94 114 2.06  56 2.07  33 2.15  39 2.18 121 2.83
   6  0.223  0.249  0.734-  46 1.93  42 1.93  55 2.08  81 2.08  56 2.15  50 2.17 126 2.82
   7  0.726  0.251  0.522-  43 1.93  31 1.99  86 2.07  52 2.08  37 2.08  35 2.22 123 2.80
   8  0.773  0.083  0.771-  44 1.93  48 1.94 117 2.08  51 2.08  54 2.16  52 2.18 128 2.83
   9  0.271  0.419  0.489-  57 1.92  77 1.95  72 2.09  87 2.09  34 2.14  81 2.15 133 2.76
  10  0.228  0.585  0.227-  58 1.93  62 1.94  71 2.07  97 2.08  66 2.14  72 2.22 130 2.83
  11  0.727  0.585  0.021-  59 1.94  79 1.97  68 2.01 102 2.08  85 2.16  83 2.19 135 2.82
  12  0.787  0.420  0.279-  64 2.01  60 2.05  67 2.10  37 2.14  68 2.34
  13  0.275  0.419  0.976-  73 1.92  61 1.95  88 2.07  50 2.09  71 2.13  65 2.19 129 2.81
  14  0.226  0.586  0.730-  74 1.93  78 1.94 113 2.07  87 2.10  82 2.15  88 2.15 134 2.81
  15  0.728  0.584  0.521-  75 1.93  63 1.95  67 2.08  84 2.09 118 2.09  69 2.22 131 2.81
  16  0.778  0.418  0.766-  76 1.90  80 1.92  83 2.09  53 2.10  84 2.15  86 2.16 136 2.81
  17  0.275  0.750  0.478-  89 1.93 109 1.94 104 2.08  66 2.09 113 2.16 119 2.18 141 2.83
  18  0.226  0.916  0.229-  90 1.93  94 1.95 103 2.06  33 2.08  98 2.17 104 2.17 138 2.82
  19  0.725  0.917  0.021-  91 1.93 111 1.95 100 2.07  38 2.08 115 2.16 117 2.17 143 2.82
  20  0.775  0.751  0.271-  92 1.94  96 1.96  69 2.03  99 2.07 100 2.17 102 2.17 140 2.83
  21  0.275  0.751  0.978- 105 1.93  93 1.95  82 2.07 120 2.07  97 2.16 103 2.17 137 2.82
  22  0.225  0.916  0.729- 106 1.93 110 1.95 119 2.07  49 2.08 120 2.16 114 2.17 142 2.83
  23  0.725  0.917  0.521- 107 1.93  95 1.95 116 2.07  54 2.08  99 2.16 101 2.17 139 2.83
  24  0.774  0.750  0.771- 108 1.93 112 1.95  85 2.08 115 2.08 118 2.15 116 2.17 144 2.82
  25  0.121  0.082  0.358- 121 1.53   1 1.93
  26  0.382  0.252  0.112- 126 1.54   2 1.97
  27  0.875  0.250  0.144- 123 1.53   3 1.93
  28  0.620  0.083  0.391- 128 1.53   4 1.94
  29  0.445  0.083  0.076- 124 1.53   5 1.94
  30  0.053  0.248  0.325- 123 1.53   2 1.92
  31  0.549  0.252  0.424- 122 1.54   7 1.99
  32  0.945  0.082  0.173- 121 1.52   4 1.96
  33  0.170  0.015  0.129- 121 1.58  18 2.08   5 2.15
  34  0.322  0.315  0.390- 122 1.59   9 2.14 145 2.18   2 2.22
  35  0.831  0.179  0.370- 123 1.58   4 2.04   7 2.22
  36  0.669  0.151  0.120- 124 1.58   3 2.09   4 2.18
  37  0.829  0.314  0.375- 123 1.57   7 2.08  12 2.14
  38  0.669  0.016  0.120- 124 1.58  19 2.08   4 2.16
  39  0.170  0.150  0.130- 121 1.59   2 2.04   5 2.18
  40  0.329  0.180  0.383- 122 1.57   1 2.07   2 2.19
  41  0.121  0.083  0.858- 125 1.53   5 1.93
  42  0.379  0.246  0.615- 122 1.52   6 1.93
  43  0.879  0.249  0.642- 127 1.53   7 1.93
  44  0.621  0.083  0.892- 124 1.53   8 1.93
  45  0.445  0.083  0.576- 128 1.53   1 1.95
  46  0.053  0.249  0.828- 127 1.53   6 1.93
  47  0.553  0.248  0.922- 126 1.52   3 1.95
  48  0.944  0.083  0.675- 125 1.53   8 1.94
  49  0.169  0.015  0.630- 125 1.58  22 2.08   1 2.14
  50  0.330  0.318  0.882- 126 1.58  13 2.09   6 2.17
  51  0.829  0.182  0.870- 127 1.58   8 2.08   3 2.16
  52  0.668  0.151  0.619- 128 1.58   7 2.08   8 2.18
  53  0.830  0.318  0.869- 127 1.58  16 2.10   3 2.16
  54  0.670  0.016  0.620- 128 1.58  23 2.08   8 2.16
  55  0.168  0.151  0.631- 125 1.58   6 2.08   1 2.19
  56  0.327  0.183  0.885- 126 1.58   5 2.07   6 2.15
  57  0.126  0.418  0.359- 129 1.53   9 1.92
  58  0.381  0.585  0.106- 134 1.53  10 1.93
  59  0.878  0.586  0.144- 131 1.53  11 1.94
  60  0.615  0.419  0.394- 136 1.52  12 2.05 145 2.18
  61  0.451  0.422  0.064- 132 1.55  13 1.95 145 2.20
  62  0.058  0.586  0.324- 131 1.53  10 1.94
  63  0.556  0.585  0.425- 130 1.53  15 1.95
  64  0.956  0.415  0.166- 129 1.50  12 2.01
  65  0.183  0.349  0.135- 129 1.59   2 2.07  13 2.19
  66  0.330  0.650  0.379- 130 1.58  17 2.09  10 2.14
  67  0.834  0.522  0.377- 131 1.57  15 2.08  12 2.10
  68  0.673  0.487  0.108- 132 1.56  11 2.01  12 2.34
  69  0.836  0.656  0.371- 131 1.58  20 2.03  15 2.22
  70  0.664  0.349  0.109- 132 1.57   3 2.05 145 2.35
  71  0.179  0.484  0.131- 129 1.59  10 2.07  13 2.13
  72  0.335  0.514  0.380- 130 1.58   9 2.09  10 2.22
  73  0.119  0.417  0.861- 133 1.52  13 1.92
  74  0.378  0.583  0.607- 130 1.53  14 1.93
  75  0.881  0.585  0.643- 135 1.52  15 1.93
  76  0.623  0.418  0.880- 132 1.52  16 1.90
  77  0.444  0.416  0.582- 136 1.54   9 1.95
  78  0.056  0.585  0.827- 135 1.53  14 1.94
  79  0.556  0.586  0.920- 134 1.52  11 1.97
  80  0.947  0.416  0.671- 133 1.52  16 1.92
  81  0.171  0.349  0.635- 133 1.58   6 2.08   9 2.15
  82  0.331  0.653  0.878- 134 1.58  21 2.07  14 2.15
  83  0.833  0.516  0.869- 135 1.57  16 2.09  11 2.19
  84  0.670  0.485  0.621- 136 1.58  15 2.09  16 2.15
  85  0.831  0.652  0.871- 135 1.58  24 2.08  11 2.16
  86  0.671  0.350  0.619- 136 1.59   7 2.07  16 2.16
  87  0.169  0.485  0.633- 133 1.58   9 2.09  14 2.10
  88  0.330  0.518  0.878- 134 1.58  13 2.07  14 2.15
  89  0.123  0.751  0.356- 137 1.53  17 1.93
  90  0.379  0.917  0.107- 142 1.53  18 1.93
  91  0.878  0.917  0.142- 139 1.53  19 1.93
  92  0.621  0.751  0.392- 144 1.53  20 1.94
  93  0.445  0.751  0.076- 140 1.53  21 1.95
  94  0.055  0.917  0.325- 139 1.53  18 1.95
  95  0.555  0.917  0.424- 138 1.53  23 1.95
  96  0.946  0.752  0.172- 137 1.53  20 1.96
  97  0.170  0.683  0.128- 137 1.58  10 2.08  21 2.16
  98  0.330  0.984  0.379- 138 1.58   1 2.06  18 2.17
  99  0.831  0.849  0.371- 139 1.58  20 2.07  23 2.16
 100  0.669  0.819  0.120- 140 1.58  19 2.07  20 2.17
 101  0.831  0.985  0.371- 139 1.58   4 2.07  23 2.17
 102  0.669  0.683  0.121- 140 1.58  11 2.08  20 2.17
 103  0.170  0.819  0.129- 137 1.58  18 2.06  21 2.17
 104  0.331  0.849  0.379- 138 1.58  17 2.08  18 2.17
 105  0.122  0.751  0.857- 141 1.53  21 1.93
 106  0.378  0.917  0.607- 138 1.53  22 1.93
 107  0.878  0.917  0.642- 143 1.53  23 1.93
 108  0.622  0.751  0.892- 140 1.53  24 1.93
 109  0.445  0.750  0.575- 144 1.53  17 1.94
 110  0.055  0.917  0.826- 143 1.53  22 1.95
 111  0.555  0.917  0.923- 142 1.53  19 1.95
 112  0.945  0.751  0.674- 141 1.53  24 1.95
 113  0.169  0.683  0.629- 141 1.58  14 2.07  17 2.16
 114  0.331  0.985  0.879- 142 1.58   5 2.06  22 2.17
 115  0.830  0.849  0.870- 143 1.58  24 2.08  19 2.16
 116  0.669  0.819  0.620- 144 1.58  23 2.07  24 2.17
 117  0.830  0.985  0.870- 143 1.58   8 2.08  19 2.17
 118  0.670  0.683  0.620- 144 1.58  15 2.09  24 2.15
 119  0.169  0.819  0.628- 141 1.58  22 2.07  17 2.18
 120  0.331  0.849  0.879- 142 1.58  21 2.07  22 2.16
 121  0.095  0.082  0.203-  32 1.52  25 1.53  33 1.58  39 1.59   5 2.83
 122  0.400  0.247  0.461-  42 1.52  31 1.54  40 1.57  34 1.59   2 2.87
 123  0.901  0.248  0.298-  27 1.53  30 1.53  37 1.57  35 1.58   7 2.80
 124  0.596  0.083  0.046-  44 1.53  29 1.53  36 1.58  38 1.58   4 2.82
 125  0.095  0.083  0.704-  41 1.53  48 1.53  55 1.58  49 1.58   1 2.82
 126  0.404  0.250  0.956-  47 1.52  26 1.54  56 1.58  50 1.58   6 2.82
 127  0.903  0.250  0.797-  43 1.53  46 1.53  53 1.58  51 1.58   3 2.81
 128  0.595  0.083  0.546-  28 1.53  45 1.53  52 1.58  54 1.58   8 2.83
 129  0.102  0.417  0.204-  64 1.50  57 1.53  71 1.59  65 1.59  13 2.81
 130  0.406  0.583  0.454-  63 1.53  74 1.53  72 1.58  66 1.58  10 2.83
 131  0.906  0.587  0.298-  59 1.53  62 1.53  67 1.57  69 1.58  15 2.81
 132  0.603  0.420  0.034-  76 1.52  61 1.55  68 1.56  70 1.57 145 2.72
 133  0.096  0.417  0.707-  80 1.52  73 1.52  81 1.58  87 1.58   9 2.76
 134  0.406  0.585  0.952-  79 1.52  58 1.53  82 1.58  88 1.58  14 2.81
 135  0.906  0.585  0.797-  75 1.52  78 1.53  83 1.57  85 1.58  11 2.82
 136  0.595  0.418  0.548-  60 1.52  77 1.54  84 1.58  86 1.59  16 2.81
 137  0.096  0.751  0.202-  96 1.53  89 1.53  97 1.58 103 1.58  21 2.82
 138  0.404  0.916  0.453- 106 1.53  95 1.53 104 1.58  98 1.58  18 2.82
 139  0.904  0.917  0.296-  91 1.53  94 1.53  99 1.58 101 1.58  23 2.83
 140  0.596  0.751  0.046- 108 1.53  93 1.53 102 1.58 100 1.58  20 2.83
 141  0.096  0.751  0.703- 105 1.53 112 1.53 119 1.58 113 1.58  17 2.83
 142  0.405  0.917  0.953-  90 1.53 111 1.53 120 1.58 114 1.58  22 2.83
 143  0.904  0.917  0.796- 107 1.53 110 1.53 115 1.58 117 1.58  19 2.82
 144  0.596  0.751  0.546-  92 1.53 109 1.53 118 1.58 116 1.58  24 2.82
 145  0.478  0.360  0.257-  34 2.18  60 2.18  61 2.20  70 2.35 132 2.72


IMPORTANT INFORMATION: All symmetrisations will be switched off!
NOSYMM: (Re-)initialisation of all symmetry stuff for point group C_1.


----------------------------------------------------------------------------------------

                                     Primitive cell                                     

  volume of cell :    1723.3780

  direct lattice vectors                    reciprocal lattice vectors
     9.962489075 -0.000069663 -0.000154526     0.100376522  0.000000553 -0.000000819
    -0.000097698 17.717656860 -0.000226836     0.000000395  0.056440872 -0.000000631
     0.000079674  0.000109170  9.763519320     0.000001589  0.000001311  0.102422084

  length of vectors
     9.962489076 17.717656862  9.763519321     0.100376522  0.056440872  0.102422084

  position of ions in fractional coordinates (direct lattice)
     0.273362307  0.081220878  0.480110554
     0.221449448  0.247182945  0.229569647
     0.724504398  0.250697529  0.019103373
     0.773924999  0.082449742  0.270474764
     0.274489530  0.081857225  0.979125817
     0.223363411  0.248738646  0.733665915
     0.725514647  0.250640332  0.521632535
     0.773420855  0.083063710  0.770752849
     0.271308193  0.419317189  0.488598346
     0.227571730  0.584760550  0.227434505
     0.726641422  0.584848969  0.020542703
     0.786760265  0.419528890  0.278509182
     0.275359412  0.419086327  0.976350828
     0.225760048  0.585631924  0.729758369
     0.728138803  0.584071857  0.520877000
     0.778027441  0.417873928  0.766376997
     0.274939125  0.749883354  0.478069400
     0.225857721  0.916317141  0.228513950
     0.725378301  0.916785241  0.020879918
     0.775256484  0.751184556  0.270787784
     0.274956500  0.750830158  0.978152756
     0.225106206  0.916333914  0.728619952
     0.725334704  0.916652761  0.521129829
     0.774319038  0.750372338  0.770718142
     0.121006421  0.082423484  0.357530924
     0.382442676  0.251826266  0.111972548
     0.874767939  0.249651394  0.143631885
     0.619733768  0.082874617  0.391305845
     0.444840146  0.083221861  0.075875560
     0.052913487  0.248330937  0.324725195
     0.549426207  0.252207532  0.424371809
     0.945284435  0.082498714  0.172562142
     0.169852378  0.015196162  0.129106100
     0.322220676  0.315246869  0.390395137
     0.830620367  0.178744932  0.370020650
     0.668503813  0.151140198  0.119713636
     0.828853408  0.313569219  0.375498497
     0.669023795  0.015577982  0.119892350
     0.169582657  0.150424103  0.130095981
     0.328720637  0.180485185  0.382790665
     0.121133442  0.082537623  0.858304479
     0.378559377  0.246408310  0.614689808
     0.879090009  0.248983780  0.642460529
     0.620540828  0.082957442  0.891741831
     0.444723779  0.082722999  0.576046171
     0.053345810  0.249201143  0.828450898
     0.553017633  0.248178338  0.921888560
     0.944471923  0.082856897  0.674750841
     0.168554940  0.015308136  0.629568417
     0.329542055  0.317731774  0.882400166
     0.828945742  0.181956678  0.870433459
     0.668139780  0.151367897  0.618812041
     0.830249410  0.317707285  0.869132142
     0.669524490  0.015839117  0.619975766
     0.168352692  0.150733167  0.631041395
     0.326765169  0.182600906  0.885332422
     0.125897321  0.418123784  0.359279454
     0.380801512  0.585496240  0.106134200
     0.878392535  0.585629630  0.144351969
     0.614858688  0.418809505  0.394385057
     0.450543360  0.421768581  0.064335558
     0.058001644  0.585957718  0.324089987
     0.556186185  0.585150089  0.425370152
     0.956228470  0.415061622  0.166262070
     0.183408712  0.349402965  0.135405903
     0.330392285  0.650296425  0.379175339
     0.834101462  0.521765710  0.376859387
     0.673141538  0.486806499  0.108444678
     0.835503201  0.656394375  0.370829792
     0.663527410  0.349077696  0.109265713
     0.179185046  0.484498365  0.131149837
     0.335333263  0.514303312  0.380178318
     0.118573381  0.417334599  0.861188705
     0.377660160  0.583286716  0.607496410
     0.880889062  0.585173977  0.642578455
     0.622815390  0.417920975  0.880077314
     0.444133868  0.416022578  0.582192983
     0.056170994  0.585126764  0.827080684
     0.555533888  0.585589234  0.920291466
     0.946896499  0.416250197  0.671456646
     0.170791829  0.348793845  0.635251323
     0.331036929  0.652833308  0.878209045
     0.833212052  0.516356589  0.868822630
     0.670210249  0.485261635  0.620686568
     0.831414023  0.652139866  0.870834788
     0.670726427  0.349576635  0.619361132
     0.169471627  0.484558353  0.633461677
     0.330193138  0.517757219  0.878163537
     0.122744363  0.750532061  0.356151412
     0.378836546  0.917061698  0.106950959
     0.878189957  0.917148662  0.142390352
     0.621376229  0.751090510  0.391772470
     0.445302088  0.751146689  0.075511842
     0.054991915  0.917048491  0.325470728
     0.554782440  0.916992372  0.423876782
     0.946056480  0.751920149  0.172145642
     0.170111224  0.683446961  0.127604818
     0.330343075  0.984082720  0.379205990
     0.830932495  0.849498062  0.370788338
     0.669242740  0.818764811  0.120195310
     0.830784342  0.984741494  0.370579402
     0.669247390  0.683329050  0.120531372
     0.170335298  0.818752773  0.128614811
     0.331131911  0.848793492  0.379124213
     0.121838578  0.751093373  0.856826282
     0.378194800  0.916787320  0.607378800
     0.878155875  0.916998378  0.642292215
     0.621750654  0.750861136  0.892193369
     0.445303380  0.749782920  0.575236576
     0.054545244  0.916994094  0.825693519
     0.554978055  0.916903834  0.923033699
     0.945137184  0.750994137  0.673656186
     0.169281867  0.683227308  0.628746804
     0.330877548  0.984565411  0.878767055
     0.830498734  0.849260517  0.870426781
     0.668509462  0.818546257  0.620343109
     0.830299157  0.984642535  0.870422471
     0.670485539  0.683267175  0.620236918
     0.169227378  0.818511037  0.628395703
     0.330727753  0.849350521  0.878647590
     0.095317356  0.082394519  0.203487582
     0.399778102  0.247260407  0.460772198
     0.901354712  0.247839639  0.297544125
     0.595513686  0.083353121  0.046034842
     0.094924910  0.082887807  0.704312475
     0.403751757  0.250131971  0.955707253
     0.902951189  0.249504228  0.796814716
     0.595309004  0.083175466  0.545578916
     0.102180415  0.416869642  0.204062090
     0.405691838  0.583301821  0.453770604
     0.906429751  0.587327101  0.298076522
     0.603111547  0.419890165  0.034154770
     0.095817344  0.416582643  0.706788269
     0.405700163  0.585216503  0.951834423
     0.905557117  0.584665156  0.796703526
     0.594635251  0.417684267  0.548197334
     0.096337892  0.750962455  0.202088446
     0.404291485  0.916483501  0.453348968
     0.904278248  0.917069602  0.296414565
     0.595988758  0.750896671  0.046342632
     0.095644527  0.750986738  0.702848854
     0.404566237  0.916866900  0.952842312
     0.903838482  0.916929486  0.796413989
     0.596126600  0.750504009  0.545866181
     0.478290485  0.359540719  0.256812808

  ion indices of the primitive-cell ions
   primitive index   ion index
                 1           1
                 2           2
                 3           3
                 4           4
                 5           5
                 6           6
                 7           7
                 8           8
                 9           9
                10          10
                11          11
                12          12
                13          13
                14          14
                15          15
                16          16
                17          17
                18          18
                19          19
                20          20
                21          21
                22          22
                23          23
                24          24
                25          25
                26          26
                27          27
                28          28
                29          29
                30          30
                31          31
                32          32
                33          33
                34          34
                35          35
                36          36
                37          37
                38          38
                39          39
                40          40
                41          41
                42          42
                43          43
                44          44
                45          45
                46          46
                47          47
                48          48
                49          49
                50          50
                51          51
                52          52
                53          53
                54          54
                55          55
                56          56
                57          57
                58          58
                59          59
                60          60
                61          61
                62          62
                63          63
                64          64
                65          65
                66          66
                67          67
                68          68
                69          69
                70          70
                71          71
                72          72
                73          73
                74          74
                75          75
                76          76
                77          77
                78          78
                79          79
                80          80
                81          81
                82          82
                83          83
                84          84
                85          85
                86          86
                87          87
                88          88
                89          89
                90          90
                91          91
                92          92
                93          93
                94          94
                95          95
                96          96
                97          97
                98          98
                99          99
               100         100
               101         101
               102         102
               103         103
               104         104
               105         105
               106         106
               107         107
               108         108
               109         109
               110         110
               111         111
               112         112
               113         113
               114         114
               115         115
               116         116
               117         117
               118         118
               119         119
               120         120
               121         121
               122         122
               123         123
               124         124
               125         125
               126         126
               127         127
               128         128
               129         129
               130         130
               131         131
               132         132
               133         133
               134         134
               135         135
               136         136
               137         137
               138         138
               139         139
               140         140
               141         141
               142         142
               143         143
               144         144
               145         145

----------------------------------------------------------------------------------------



 KPOINTS: KPOINTS created by Atomic Simulation Env

Automatic generation of k-mesh.
 Grid dimensions read from file:
 generate k-points for:    3    1    3

 Generating k-lattice:

  Cartesian coordinates                     Fractional coordinates (reciprocal lattice)
     0.033458841  0.000000184 -0.000000273     0.333333333  0.000000000 -0.000000000
     0.000000395  0.056440872 -0.000000631    -0.000000000  1.000000000  0.000000000
     0.000000530  0.000000437  0.034140695     0.000000000 -0.000000000  0.333333333

  Length of vectors
     0.033458841  0.056440872  0.034140695

  Shift w.r.t. Gamma in fractional coordinates (k-lattice)
     0.000000000  0.000000000  0.000000000

 
 Subroutine IBZKPT returns following result:
 ===========================================
 
 Found      5 irreducible k-points:
 
 Following reciprocal coordinates:
            Coordinates               Weight
  0.000000  0.000000  0.000000      1.000000
  0.333333  0.000000  0.000000      2.000000
  0.000000  0.000000  0.333333      2.000000
  0.333333  0.000000  0.333333      2.000000
 -0.333333  0.000000  0.333333      2.000000
 
 Following cartesian coordinates:
            Coordinates               Weight
  0.000000  0.000000  0.000000      1.000000
  0.033459  0.000000 -0.000000      2.000000
  0.000001  0.000000  0.034141      2.000000
  0.033459  0.000001  0.034140      2.000000
 -0.033458  0.000000  0.034141      2.000000
 


--------------------------------------------------------------------------------------------------------




 Dimension of arrays:
   k-points           NKPTS =      5   k-points in BZ     NKDIM =      5   number of bands    NBANDS=    696
   number of dos      NEDOS =    301   number of ions     NIONS =    145
   non local maximal  LDIM  =      6   non local SUM 2l+1 LMDIM =     18
   total plane-waves  NPLWV = 896000
   max r-space proj   IRMAX =   6631   max aug-charges    IRDMAX=  16019
   dimension x,y,z NGX =    80 NGY =  140 NGZ =   80
   dimension x,y,z NGXF=   160 NGYF=  280 NGZF=  160
   support grid    NGXF=   160 NGYF=  280 NGZF=  160
   ions per type =              24  96  24   1
   NGX,Y,Z   is equivalent  to a cutoff of  13.35, 13.14, 13.62 a.u.
   NGXF,Y,Z  is equivalent  to a cutoff of  26.70, 26.27, 27.24 a.u.

 SYSTEM =  unknown system                          
 POSCAR =  Fe O  P  Na                             

 Startparameter for this run:
   NWRITE =      2    write-flag & timer
   PREC   = accura    normal or accurate (medium, high low for compatibility)
   ISTART =      1    job   : 0-new  1-cont  2-samecut
   ICHARG =      0    charge: 1-file 2-atom 10-const
   ISPIN  =      2    spin polarized calculation?
   LNONCOLLINEAR =      F non collinear calculations
   LSORBIT =      F    spin-orbit coupling
   INIWAV =      1    electr: 0-lowe 1-rand  2-diag
   LASPH  =      T    aspherical Exc in radial PAW
 Electronic Relaxation 1
   ENCUT  =  520.0 eV  38.22 Ry    6.18 a.u.  18.52 32.94 18.15*2*pi/ulx,y,z
   ENINI  =  520.0     initial cutoff
   ENAUG  =  605.4 eV  augmentation charge cutoff
   NELM   =    300;   NELMIN=  8; NELMDL=  0     # of ELM steps 
   EDIFF  = 0.1E-05   stopping-criterion for ELM
   LREAL  =      T    real-space projection
   NLSPLINE    = F    spline interpolate recip. space projectors
   LCOMPAT=      F    compatible to vasp.4.4
   GGA_COMPAT  = T    GGA compatible to vasp.4.4-vasp.4.6
   LMAXPAW     = -100 max onsite density
   LMAXMIX     =    4 max onsite mixed and CHGCAR
   VOSKOWN=      0    Vosko Wilk Nusair interpolation
   ROPT   =   -0.00025  -0.00025  -0.00025  -0.00025
 Ionic relaxation
   EDIFFG = -.2E-01   stopping-criterion for IOM
   NSW    =      1    number of steps for IOM
   NBLOCK =      1;   KBLOCK =      1    inner block; outer block 
   IBRION =      2    ionic relax: 0-MD 1-quasi-New 2-CG
   NFREE  =      1    steps in history (QN), initial steepest desc. (CG)
   ISIF   =      2    stress and relaxation
   IWAVPR =     11    prediction:  0-non 1-charg 2-wave 3-comb
   ISYM   =      0    0-nonsym 1-usesym 2-fastsym
   LCORR  =      T    Harris-Foulkes like correction to forces

   POTIM  = 0.5000    time-step for ionic-motion
   TEIN   =    0.0    initial temperature
   TEBEG  =    0.0;   TEEND  =   0.0 temperature during run
   SMASS  =  -3.00    Nose mass-parameter (am)
   estimated Nose-frequenzy (Omega)   =  0.10E-29 period in steps = 0.13E+47 mass=  -0.227E-26a.u.
   SCALEE = 1.0000    scale energy and forces
   NPACO  =    256;   APACO  = 10.0  distance and # of slots for P.C.
   PSTRESS=    0.0 pullay stress

  Mass of Ions in am
   POMASS =  55.85 16.00 30.97 22.99
  Ionic Valenz
   ZVAL   =  14.00  6.00  5.00  7.00
  Atomic Wigner-Seitz radii
   RWIGS  =  -1.00 -1.00 -1.00 -1.00
  virtual crystal weights 
   VCA    =   1.00  1.00  1.00  1.00
   NELECT =    1039.0000    total number of electrons
   NUPDOWN=     119.0000    fix difference up-down

 DOS related values:
   EMIN   =  10.00;   EMAX   =-10.00  energy-range for DOS
   EFERMI =   0.00;   METHOD = LEGACY      
   ISMEAR =     0;   SIGMA  =   0.05  broadening in eV -4-tet -1-fermi 0-gaus

 Electronic relaxation 2 (details)
   IALGO  =     58    algorithm
   LDIAG  =      T    sub-space diagonalisation (order eigenvalues)
   LSUBROT=      F    optimize rotation matrix (better conditioning)
   TURBO    =      0    0=normal 1=particle mesh
   IRESTART =      0    0=no restart 2=restart with 2 vectors
   NREBOOT  =      0    no. of reboots
   NMIN     =      0    reboot dimension
   EREF     =   0.00    reference energy to select bands
   IMIX   =      4    mixing-type and parameters
     AMIX     =   0.40;   BMIX     =  1.00
     AMIX_MAG =   1.60;   BMIX_MAG =  1.00
     AMIN     =   0.10
     WC   =   100.;   INIMIX=   1;  MIXPRE=   1;  MAXMIX= -45

 Intra band minimization:
   WEIMIN = 0.0010     energy-eigenvalue tresh-hold
   EBREAK =  0.36E-09  absolut break condition
   DEPER  =   0.30     relativ break condition  

   TIME   =   0.05     timestep for ELM

  volume/ion in A,a.u.               =      11.89        80.21
  Fermi-wavevector in a.u.,A,eV,Ry     =   1.382993  2.613477 26.023433  1.912668
  Thomas-Fermi vector in A             =   2.507632

 Write flags
   LWAVE        =      T    write WAVECAR
   LDOWNSAMPLE  =      F    k-point downsampling of WAVECAR
   LCHARG       =      T    write CHGCAR
   LVTOT        =      F    write LOCPOT, total local potential
   LVHAR        =      F    write LOCPOT, Hartree potential only
   LELF         =      F    write electronic localiz. function (ELF)
   LORBIT       =     12    0 simple, 1 ext, 2 COOP (PROOUT), +10 PAW based schemes


 Dipole corrections
   LMONO  =      F    monopole corrections only (constant potential shift)
   LDIPOL =      F    correct potential (dipole corrections)
   IDIPOL =      0    1-x, 2-y, 3-z, 4-all directions 
   EPSILON=  1.0000000 bulk dielectric constant

 LDA+U is selected, type is set to LDAUTYPE =  2
   angular momentum for each species LDAUL =     2   -1   -1   -1
   U (eV)           for each species LDAUU =   5.3  0.0  0.0  0.0
   J (eV)           for each species LDAUJ =   0.0  0.0  0.0  0.0
 Exchange correlation treatment:
   GGA     =    PE    GGA type
   LEXCH   =     8    internal setting for exchange type
   LIBXC   =     F    Libxc                    
   VOSKOWN =     0    Vosko Wilk Nusair interpolation
   LHFCALC =     F    Hartree Fock is set to
   LHFONE  =     F    Hartree Fock one center treatment
   AEXX    =    0.0000 exact exchange contribution

 Linear response parameters
   LEPSILON=     F    determine dielectric tensor
   LRPA    =     F    only Hartree local field effects (RPA)
   LNABLA  =     F    use nabla operator in PAW spheres
   LVEL    =     F    velocity operator in full k-point grid
   CSHIFT  =0.1000    complex shift for real part using Kramers Kronig
   OMEGAMAX=  -1.0    maximum frequency
   DEG_THRESHOLD= 0.2000000E-02 threshold for treating states as degnerate
   RTIME   =   -0.100 relaxation time in fs
  (WPLASMAI=    0.000 imaginary part of plasma frequency in eV, 0.658/RTIME)
   DFIELD  = 0.0000000 0.0000000 0.0000000 field for delta impulse in time

  Optional k-point grid parameters
   LKPOINTS_OPT  =     F    use optional k-point grid
   KPOINTS_OPT_MODE=     1    mode for optional k-point grid

 Orbital magnetization related:
   ORBITALMAG=     F  switch on orbital magnetization
   LCHIMAG   =     F  perturbation theory with respect to B field
   DQ        =  0.001000  dq finite difference perturbation B field
   LLRAUG    =     F  two centre corrections for induced B field
   LBONE     =     F  B-component reconstruction in AE one-centre
   LVGVCALC  =     T  calculate vGv susceptibility
   LVGVAPPL  =     F  apply vGv susceptibility instead of pGv for G=0

 Random number generation:
   RANDOM_GENERATOR = DEFAULT
   PCG_SEED         = not used


--------------------------------------------------------------------------------------------------------


 conjugate gradient relaxation of ions
 charge density and potential will be updated during run
 spin polarized calculation
 Conjugate gradient for all bands (Freysoldt, et al. PRB 79, 241103 (2009))
 preconditioned conjugated gradient                                        
 perform sub-space diagonalisation
    before iterative eigenvector-optimisation
 modified Broyden-mixing scheme, WC =      100.0
 initial mixing is a Kerker type mixing with AMIX =  0.4000 and BMIX =      1.0000
 Hartree-type preconditioning will be used
 using additional bands          176
 real space projection scheme for non local part
 use partial core corrections
 no Harris-corrections to forces 
 use gradient corrections 
 use of overlap-Matrix (Vanderbilt PP)
 Gauss-broadening in eV      SIGMA  =   0.05


--------------------------------------------------------------------------------------------------------


  energy-cutoff  :      520.00
  volume of cell :     1723.38
      direct lattice vectors                 reciprocal lattice vectors
     9.962489075 -0.000069663 -0.000154526     0.100376522  0.000000553 -0.000000819
    -0.000097698 17.717656860 -0.000226836     0.000000395  0.056440872 -0.000000631
     0.000079674  0.000109170  9.763519320     0.000001589  0.000001311  0.102422084

  length of vectors
     9.962489076 17.717656862  9.763519321     0.100376522  0.056440872  0.102422084



 old parameters found on file WAVECAR:
  energy-cutoff  :      520.00
  volume of cell :     1723.38
      direct lattice vectors                 reciprocal lattice vectors
     9.962489075 -0.000069663 -0.000154526     0.100376522  0.000000553 -0.000000819
    -0.000097698 17.717656860 -0.000226836     0.000000395  0.056440872 -0.000000631
     0.000079674  0.000109170  9.763519320     0.000001589  0.000001311  0.102422084

  length of vectors


 k-points in units of 2pi/SCALE and weight: KPOINTS created by Atomic Simulation Env
   0.00000000  0.00000000  0.00000000       0.111
   0.03345884  0.00000018 -0.00000027       0.222
   0.00000053  0.00000044  0.03414069       0.222
   0.03345937  0.00000062  0.03414042       0.222
  -0.03345831  0.00000025  0.03414097       0.222

 k-points in reciprocal lattice and weights: KPOINTS created by Atomic Simulation Env
   0.00000000  0.00000000  0.00000000       0.111
   0.33333333  0.00000000  0.00000000       0.222
   0.00000000  0.00000000  0.33333333       0.222
   0.33333333  0.00000000  0.33333333       0.222
  -0.33333333  0.00000000  0.33333333       0.222

 position of ions in fractional coordinates (direct lattice) 
   0.27336231  0.08122088  0.48011055
   0.22144945  0.24718294  0.22956965
   0.72450440  0.25069753  0.01910337
   0.77392500  0.08244974  0.27047476
   0.27448953  0.08185723  0.97912582
   0.22336341  0.24873865  0.73366592
   0.72551465  0.25064033  0.52163253
   0.77342086  0.08306371  0.77075285
   0.27130819  0.41931719  0.48859835
   0.22757173  0.58476055  0.22743450
   0.72664142  0.58484897  0.02054270
   0.78676026  0.41952889  0.27850918
   0.27535941  0.41908633  0.97635083
   0.22576005  0.58563192  0.72975837
   0.72813880  0.58407186  0.52087700
   0.77802744  0.41787393  0.76637700
   0.27493913  0.74988335  0.47806940
   0.22585772  0.91631714  0.22851395
   0.72537830  0.91678524  0.02087992
   0.77525648  0.75118456  0.27078778
   0.27495650  0.75083016  0.97815276
   0.22510621  0.91633391  0.72861995
   0.72533470  0.91665276  0.52112983
   0.77431904  0.75037234  0.77071814
   0.12100642  0.08242348  0.35753092
   0.38244268  0.25182627  0.11197255
   0.87476794  0.24965139  0.14363188
   0.61973377  0.08287462  0.39130584
   0.44484015  0.08322186  0.07587556
   0.05291349  0.24833094  0.32472519
   0.54942621  0.25220753  0.42437181
   0.94528444  0.08249871  0.17256214
   0.16985238  0.01519616  0.12910610
   0.32222068  0.31524687  0.39039514
   0.83062037  0.17874493  0.37002065
   0.66850381  0.15114020  0.11971364
   0.82885341  0.31356922  0.37549850
   0.66902380  0.01557798  0.11989235
   0.16958266  0.15042410  0.13009598
   0.32872064  0.18048518  0.38279066
   0.12113344  0.08253762  0.85830448
   0.37855938  0.24640831  0.61468981
   0.87909001  0.24898378  0.64246053
   0.62054083  0.08295744  0.89174183
   0.44472378  0.08272300  0.57604617
   0.05334581  0.24920114  0.82845090
   0.55301763  0.24817834  0.92188856
   0.94447192  0.08285690  0.67475084
   0.16855494  0.01530814  0.62956842
   0.32954205  0.31773177  0.88240017
   0.82894574  0.18195668  0.87043346
   0.66813978  0.15136790  0.61881204
   0.83024941  0.31770729  0.86913214
   0.66952449  0.01583912  0.61997577
   0.16835269  0.15073317  0.63104140
   0.32676517  0.18260091  0.88533242
   0.12589732  0.41812378  0.35927945
   0.38080151  0.58549624  0.10613420
   0.87839253  0.58562963  0.14435197
   0.61485869  0.41880950  0.39438506
   0.45054336  0.42176858  0.06433556
   0.05800164  0.58595772  0.32408999
   0.55618619  0.58515009  0.42537015
   0.95622847  0.41506162  0.16626207
   0.18340871  0.34940296  0.13540590
   0.33039228  0.65029643  0.37917534
   0.83410146  0.52176571  0.37685939
   0.67314154  0.48680650  0.10844468
   0.83550320  0.65639437  0.37082979
   0.66352741  0.34907770  0.10926571
   0.17918505  0.48449837  0.13114984
   0.33533326  0.51430331  0.38017832
   0.11857338  0.41733460  0.86118871
   0.37766016  0.58328672  0.60749641
   0.88088906  0.58517398  0.64257845
   0.62281539  0.41792098  0.88007731
   0.44413387  0.41602258  0.58219298
   0.05617099  0.58512676  0.82708068
   0.55553389  0.58558923  0.92029147
   0.94689650  0.41625020  0.67145665
   0.17079183  0.34879385  0.63525132
   0.33103693  0.65283331  0.87820904
   0.83321205  0.51635659  0.86882263
   0.67021025  0.48526163  0.62068657
   0.83141402  0.65213987  0.87083479
   0.67072643  0.34957663  0.61936113
   0.16947163  0.48455835  0.63346168
   0.33019314  0.51775722  0.87816354
   0.12274436  0.75053206  0.35615141
   0.37883655  0.91706170  0.10695096
   0.87818996  0.91714866  0.14239035
   0.62137623  0.75109051  0.39177247
   0.44530209  0.75114669  0.07551184
   0.05499192  0.91704849  0.32547073
   0.55478244  0.91699237  0.42387678
   0.94605648  0.75192015  0.17214564
   0.17011122  0.68344696  0.12760482
   0.33034308  0.98408272  0.37920599
   0.83093250  0.84949806  0.37078834
   0.66924274  0.81876481  0.12019531
   0.83078434  0.98474149  0.37057940
   0.66924739  0.68332905  0.12053137
   0.17033530  0.81875277  0.12861481
   0.33113191  0.84879349  0.37912421
   0.12183858  0.75109337  0.85682628
   0.37819480  0.91678732  0.60737880
   0.87815587  0.91699838  0.64229221
   0.62175065  0.75086114  0.89219337
   0.44530338  0.74978292  0.57523658
   0.05454524  0.91699409  0.82569352
   0.55497806  0.91690383  0.92303370
   0.94513718  0.75099414  0.67365619
   0.16928187  0.68322731  0.62874680
   0.33087755  0.98456541  0.87876705
   0.83049873  0.84926052  0.87042678
   0.66850946  0.81854626  0.62034311
   0.83029916  0.98464254  0.87042247
   0.67048554  0.68326717  0.62023692
   0.16922738  0.81851104  0.62839570
   0.33072775  0.84935052  0.87864759
   0.09531736  0.08239452  0.20348758
   0.39977810  0.24726041  0.46077220
   0.90135471  0.24783964  0.29754413
   0.59551369  0.08335312  0.04603484
   0.09492491  0.08288781  0.70431248
   0.40375176  0.25013197  0.95570725
   0.90295119  0.24950423  0.79681472
   0.59530900  0.08317547  0.54557892
   0.10218042  0.41686964  0.20406209
   0.40569184  0.58330182  0.45377060
   0.90642975  0.58732710  0.29807652
   0.60311155  0.41989017  0.03415477
   0.09581734  0.41658264  0.70678827
   0.40570016  0.58521650  0.95183442
   0.90555712  0.58466516  0.79670353
   0.59463525  0.41768427  0.54819733
   0.09633789  0.75096245  0.20208845
   0.40429149  0.91648350  0.45334897
   0.90427825  0.91706960  0.29641457
   0.59598876  0.75089667  0.04634263
   0.09564453  0.75098674  0.70284885
   0.40456624  0.91686690  0.95284231
   0.90383848  0.91692949  0.79641399
   0.59612660  0.75050401  0.54586618
   0.47829049  0.35954072  0.25681281

 position of ions in cartesian coordinates  (Angst):
   2.72339931  1.43907701  4.68750800
   2.20618185  4.37951223  2.24131739
   7.21784418  4.44172440  0.18634733
   7.71023284  1.46079186  2.64064729
   2.73466895  1.45040600  9.55965284
   2.22528970  4.40713051  7.16307040
   7.22794882  4.44076580  5.09280037
   7.70525012  1.47172457  7.52512198
   2.70290287  7.42935251  4.77030235
   2.26714186 10.36059574  2.22039337
   7.23910172 10.36210497  0.20032413
   7.83807174  7.43304451  2.71901304
   2.74330198  7.42531514  9.53248255
   2.24913294 10.37608942  7.12484220
   7.25405930 10.34839088  5.08534765
   7.75111011  7.40377634  7.48232160
   2.73904286 13.28620899  4.66742724
   2.25003377 16.23500189  2.23085761
   7.22648549 16.24323806  0.20354143
   7.72343244 13.30920575  2.64355156
   2.73925571 13.30303873  9.55000053
   2.24258665 16.23535372  7.11365234
   7.22609103 16.24094545  5.08774114
   7.71413305 13.29486979  7.52463160
   1.20554558  1.46038160  3.49072269
   3.81006530  4.46175694  1.09312992
   8.71485309  4.42319247  1.40216088
   6.17411397  1.46834358  3.82040761
   4.43171301  1.47447368  0.74072487
   0.52715165  4.39987408  3.17039620
   5.47366175  4.46853457  4.14322025
   9.41739155  1.46163689  1.68464902
   1.69216126  0.26924264  1.26050021
   3.21012027  5.58545603  3.81150917
   8.27505835  3.16692390  3.61253487
   6.65995670  2.67781666  1.16868881
   8.25744230  5.55569508  3.66598762
   6.66515028  0.27597182  1.17046436
   1.68946104  2.66516503  1.27013429
   3.27488862  3.19779347  3.73729231
   1.20685091  1.46245855  8.38003492
   3.77141856  4.36581862  6.00142142
   8.75795147  4.41141808  6.27248347
   6.18219416  1.46986561  8.70642389
   4.43059360  1.46568961  5.62415044
   0.53149871  4.41534706  8.08853157
   5.50948133  4.39720076  9.00073501
   9.40933688  1.46803794  6.58777814
   1.67927541  0.27128130  6.14677388
   3.28309838  5.62953593  8.61520807
   8.25841448  3.22388327  8.49832453
   6.65636978  2.68190546  6.04164574
   8.27138889  5.62906571  8.48558810
   6.67017827  0.28065309  6.05303832
   1.67724741  2.67069568  6.16112465
   3.25544712  3.23533408  8.64386830
   1.25423846  7.40820417  3.50771759
   3.79368215 10.37360653  1.03605166
   8.75093032 10.37593940  1.40911466
   6.12551346  7.42032331  3.85039611
   4.48849722  7.47272663  0.62797617
   0.57780932 10.38182912  3.16411697
   5.54097552 10.36749618  4.15289102
   9.52638839  7.35387093  1.62306102
   1.82718394  6.19060384  1.32193055
   3.29149620 11.52174729  3.70188718
   8.30970575  9.24444885  3.67922667
   6.70612630  8.62503544  1.05858726
   8.32365693 11.62975258  3.62032584
   6.61035918  6.18480455  1.06663619
   1.78509218  8.58417762  1.28034638
   3.34073401  9.11226775  3.71170988
   1.18131385  7.39427698  8.40811957
   3.76242664 10.33451389  5.93111227
   8.77584169 10.36792051  6.27355830
   6.20482080  7.40463313  8.59246082
   4.42468455  7.37097790  5.68408944
   0.55961165 10.36716161  8.07507683
   5.53451640 10.37533088  8.98506483
   9.43345886  7.37498551  6.55553919
   1.70152826  6.17986711  6.20218305
   3.29795798 11.56674935  8.57421174
   8.30088474  9.14866567  8.48252065
   6.67696432  8.59772020  6.05987166
   8.28295879 11.55442753  8.50213587
   6.68211990  6.19369975  6.04696144
   1.68836237  8.58529598  6.18467922
   3.28956491  9.17351762  8.57379819
   1.22279443 13.29769985  3.47710198
   3.77407388 16.24816977  1.04395119
   8.74887959 16.24967966  1.38988721
   6.19041172 13.30756341  3.82481168
   4.43624982 13.30853651  0.73702213
   0.54779269 16.24798218  3.17752322
   5.52695818 16.24696382  4.13823542
   9.42501760 13.32221607  1.68043055
   1.69467460 12.10908081  1.24569079
   3.29097335 17.43565833  3.70211074
   8.27810245 15.05109777  3.61987800
   6.66725307 14.50656047  1.17324009
   8.27661325 17.44729447  3.61780740
   6.66731266 12.10695617  1.17655196
   1.69689380 14.50638285  1.25552115
   3.29884532 15.03865015  3.70134287
   1.21381039 13.30769970  8.36545076
   3.76772039 16.24336311  5.92988824
   8.74857989 16.24707155  6.27068874
   6.19418182 13.30355404  8.71068079
   4.43630264 13.28442828  5.61609454
   0.54338259 16.24707304  8.06145819
   5.52894678 16.24544961  9.01176360
   9.41589917 13.30586412  6.57693878
   1.68645210 12.10524385  6.13860043
   3.29633778 17.44426500  8.57958466
   8.27382095 15.04694359  8.49810771
   6.65998767 14.50274286  6.05644295
   8.27181943 17.44559575  8.49803495
   6.67968752 12.10591435  6.05543654
   1.68589601 14.50215450  6.13514177
   3.29485865 15.04857396  8.57844895
   0.94960628  1.45985339  1.98672151
   3.98279753  4.38089751  4.49864040
   8.97973597  4.39110737  2.90488231
   5.93279411  1.47678554  0.44935114
   0.94573640  1.46864800  6.87653499
   4.02242418  4.43182863  9.33094710
   8.99568046  4.42065438  7.77951975
   5.93079479  1.47369245  5.32665943
   1.01794680  7.38596843  1.99225381
   4.04167967 10.33476279  4.43020306
   9.03026286 10.40602943  2.91000259
   6.00845390  7.43943158  0.33328231
   0.95459485  7.38093880  6.90063161
   4.04180210 10.36874084  9.29305834
   9.02160924 10.35892051  7.77835771
   5.92405006  7.40040494  5.35214863
   0.95970793 13.30531044  1.97290922
   4.02769609 16.23796151  4.42601104
   9.00879618 16.24829389  2.89370157
   5.93746182 13.30409309  0.45220476
   0.95284019 13.30579541  6.86209324
   4.03047305 16.24480895  9.30282383
   9.00445488 16.24586598  7.77545571
   5.93887491 13.29719056  5.32931265
   4.76494907  6.37021379  2.50724135



--------------------------------------------------------------------------------------------------------


 k-point   1 :   0.0000 0.0000 0.0000  plane waves:   46385
 k-point   2 :   0.3333 0.0000 0.0000  plane waves:   46400
 k-point   3 :   0.0000 0.0000 0.3333  plane waves:   46458
 k-point   4 :   0.3333 0.0000 0.3333  plane waves:   46379
 k-point   5 :  -0.3333 0.0000 0.3333  plane waves:   46380

 maximum and minimum number of plane-waves per node :     11622    11582

 maximum number of plane-waves:     46458
 maximum index in each direction: 
   IXMAX=   18   IYMAX=   32   IZMAX=   18
   IXMIN=  -18   IYMIN=  -32   IZMIN=  -18


 real space projection operators:
  total allocation   :      46447.02 KBytes
  max/ min on nodes  :      11711.94      11534.81


 parallel 3D FFT for wavefunctions:
    minimum data exchange during FFTs selected (reduces bandwidth)
 parallel 3D FFT for charge:
    minimum data exchange during FFTs selected (reduces bandwidth)


 total amount of memory used by VASP MPI-rank0   264829. kBytes
=======================================================================

   base      :      30000. kBytes
   nonlr-proj:      30740. kBytes
   fftplans  :       9535. kBytes
   grid      :      26700. kBytes
   one-center:       1150. kBytes
   wavefun   :     166704. kBytes

     INWAV:  cpu time     18.0987: real time     35.0076
 Broyden mixing: mesh for mixing (old mesh)
   NGX = 37   NGY = 65   NGZ = 37
  (NGX  =160   NGY  =280   NGZ  =160)
  gives a total of  88985 points

 charge density for first step will be calculated from the start-wavefunctions


--------------------------------------------------------------------------------------------------------


 Maximum index for non-local projection operator         1626
 Maximum index for augmentation-charges          748 (set IRDMAX)


--------------------------------------------------------------------------------------------------------


 initial charge from wavefunction
 First call to EWALD:  gamma=   0.148
 Maximum number of real-space cells 3x 2x 3
 Maximum number of reciprocal cells 2x 4x 2

    FEWALD:  cpu time      0.0873: real time      0.0876


--------------------------------------- Ionic step        1  -------------------------------------------




--------------------------------------- Iteration      1(   1)  ---------------------------------------


    POTLOK:  cpu time      0.1129: real time      0.1134
    SETDIJ:  cpu time      0.4451: real time      0.4466
    TRIAL :  cpu time      7.4588: real time      7.5031
    CORREC:  cpu time     13.2870: real time     13.3547
    CHARGE:  cpu time      0.2454: real time      0.2473
    --------------------------------------------
      LOOP:  cpu time     21.5890: real time     21.7199

 eigenvalue-minimisations  :     0
 total energy-change (2. order) :-0.1020182E+04  (-0.3132883E-05)
 number of electron    1039.0000128 magnetization     119.0000043
 augmentation part      257.3527893 magnetization      80.9088357

 Free energy of the ion-electron system (eV)
  ---------------------------------------------------
  alpha Z        PSCENC =      2952.23721804
  Ewald energy   TEWEN  =    -62509.88167948
  -Hartree energ DENC   =    -37451.23420499
  -exchange      EXHF   =         0.00000000
  -V(xc)+E(xc)   XCENC  =      4603.98508135
  PAW double counting   =    159585.36769274  -161657.05900873
  entropy T*S    EENTRO =        -0.00000000
  eigenvalues    EBANDS =    -12019.03854365
  atomic energy  EATOM  =    105475.44126576
  ---------------------------------------------------
  free energy    TOTEN  =     -1020.18217894 eV

  energy without entropy =    -1020.18217894  energy(sigma->0) =    -1020.18217894


--------------------------------------------------------------------------------------------------------




--------------------------------------- Iteration      1(   2)  ---------------------------------------


    POTLOK:  cpu time      0.1106: real time      0.1113
    SETDIJ:  cpu time      0.4409: real time      0.4424
    TRIAL :  cpu time      7.4009: real time      7.4397
    CORREC:  cpu time     13.2600: real time     13.3297
    CHARGE:  cpu time      0.2528: real time      0.2561
    --------------------------------------------
      LOOP:  cpu time     21.4664: real time     21.5922

 eigenvalue-minimisations  :     0
 total energy-change (2. order) :-0.9303141E-05  (-0.2563709E-06)
 number of electron    1039.0000128 magnetization     119.0000043
 augmentation part      257.3527955 magnetization      80.9088412

 Free energy of the ion-electron system (eV)
  ---------------------------------------------------
  alpha Z        PSCENC =      2952.23721804
  Ewald energy   TEWEN  =    -62509.88167948
  -Hartree energ DENC   =    -37451.23175410
  -exchange      EXHF   =         0.00000000
  -V(xc)+E(xc)   XCENC  =      4603.98511443
  PAW double counting   =    159585.39692788  -161657.08806092
  entropy T*S    EENTRO =        -0.00000000
  eigenvalues    EBANDS =    -12019.04121986
  atomic energy  EATOM  =    105475.44126576
  ---------------------------------------------------
  free energy    TOTEN  =     -1020.18218825 eV

  energy without entropy =    -1020.18218825  energy(sigma->0) =    -1020.18218825


--------------------------------------------------------------------------------------------------------




--------------------------------------- Iteration      1(   3)  ---------------------------------------


    POTLOK:  cpu time      0.1093: real time      0.1098
    SETDIJ:  cpu time      0.4433: real time      0.4449
    TRIAL :  cpu time      7.3986: real time      7.4373
    CORREC:  cpu time      3.3213: real time      3.3381
    CHARGE:  cpu time      0.2539: real time      0.2562
    --------------------------------------------
      LOOP:  cpu time     11.5270: real time     11.5870

 eigenvalue-minimisations  :     0
 total energy-change (2. order) :-0.6879927E-05  (-0.1216438E-05)
 number of electron    1039.0000128 magnetization     119.0000043
 augmentation part      257.3527993 magnetization      80.9088400

 Free energy of the ion-electron system (eV)
  ---------------------------------------------------
  alpha Z        PSCENC =      2952.23721804
  Ewald energy   TEWEN  =    -62509.88167948
  -Hartree energ DENC   =    -37451.23001004
  -exchange      EXHF   =         0.00000000
  -V(xc)+E(xc)   XCENC  =      4603.98519285
  PAW double counting   =    159585.48042898  -161657.17182034
  entropy T*S    EENTRO =        -0.00000000
  eigenvalues    EBANDS =    -12019.04279090
  atomic energy  EATOM  =    105475.44126576
  ---------------------------------------------------
  free energy    TOTEN  =     -1020.18219513 eV

  energy without entropy =    -1020.18219513  energy(sigma->0) =    -1020.18219513


--------------------------------------------------------------------------------------------------------




--------------------------------------- Iteration      1(   4)  ---------------------------------------


    POTLOK:  cpu time      0.1075: real time      0.1080
    SETDIJ:  cpu time      0.4449: real time      0.4464
    TRIAL :  cpu time      7.3781: real time      7.4173
    CORREC:  cpu time      3.3368: real time      3.3549
    CHARGE:  cpu time      0.2562: real time      0.2587
    --------------------------------------------
      LOOP:  cpu time     11.5242: real time     11.5860

 eigenvalue-minimisations  :     0
 total energy-change (2. order) :-0.1207576E-05  (-0.6555088E-06)
 number of electron    1039.0000128 magnetization     119.0000043
 augmentation part      257.3527897 magnetization      80.9088346

 Free energy of the ion-electron system (eV)
  ---------------------------------------------------
  alpha Z        PSCENC =      2952.23721804
  Ewald energy   TEWEN  =    -62509.88167948
  -Hartree energ DENC   =    -37451.23064714
  -exchange      EXHF   =         0.00000000
  -V(xc)+E(xc)   XCENC  =      4603.98521312
  PAW double counting   =    159585.51298572  -161657.20455291
  entropy T*S    EENTRO =        -0.00000000
  eigenvalues    EBANDS =    -12019.04199944
  atomic energy  EATOM  =    105475.44126576
  ---------------------------------------------------
  free energy    TOTEN  =     -1020.18219633 eV

  energy without entropy =    -1020.18219633  energy(sigma->0) =    -1020.18219633


--------------------------------------------------------------------------------------------------------




--------------------------------------- Iteration      1(   5)  ---------------------------------------


    POTLOK:  cpu time      0.1077: real time      0.1082
    SETDIJ:  cpu time      0.4489: real time      0.4504
    TRIAL :  cpu time      7.4029: real time      7.4426
    CORREC:  cpu time      3.3158: real time      3.3330
    CHARGE:  cpu time      0.2544: real time      0.2566
    --------------------------------------------
      LOOP:  cpu time     11.5306: real time     11.5917

 eigenvalue-minimisations  :     0
 total energy-change (2. order) :-0.6573828E-06  (-0.3514439E-06)
 number of electron    1039.0000128 magnetization     119.0000043
 augmentation part      257.3527850 magnetization      80.9088328

 Free energy of the ion-electron system (eV)
  ---------------------------------------------------
  alpha Z        PSCENC =      2952.23721804
  Ewald energy   TEWEN  =    -62509.88167948
  -Hartree energ DENC   =    -37451.23056949
  -exchange      EXHF   =         0.00000000
  -V(xc)+E(xc)   XCENC  =      4603.98516006
  PAW double counting   =    159585.52961900  -161657.22088929
  entropy T*S    EENTRO =        -0.00000000
  eigenvalues    EBANDS =    -12019.04232159
  atomic energy  EATOM  =    105475.44126576
  ---------------------------------------------------
  free energy    TOTEN  =     -1020.18219699 eV

  energy without entropy =    -1020.18219699  energy(sigma->0) =    -1020.18219699


--------------------------------------------------------------------------------------------------------




--------------------------------------- Iteration      1(   6)  ---------------------------------------


    POTLOK:  cpu time      0.1084: real time      0.1089
    SETDIJ:  cpu time      0.4439: real time      0.4455
    TRIAL :  cpu time      7.3745: real time      7.4139
    CORREC:  cpu time      3.3043: real time      3.3220
    CHARGE:  cpu time      0.2558: real time      0.2580
    --------------------------------------------
      LOOP:  cpu time     11.4877: real time     11.5491

 eigenvalue-minimisations  :     0
 total energy-change (2. order) :-0.3585883E-06  (-0.2887466E-06)
 number of electron    1039.0000128 magnetization     119.0000043
 augmentation part      257.3527926 magnetization      80.9088341

 Free energy of the ion-electron system (eV)
  ---------------------------------------------------
  alpha Z        PSCENC =      2952.23721804
  Ewald energy   TEWEN  =    -62509.88167948
  -Hartree energ DENC   =    -37451.23045314
  -exchange      EXHF   =         0.00000000
  -V(xc)+E(xc)   XCENC  =      4603.98513106
  PAW double counting   =    159585.53127312  -161657.22236742
  entropy T*S    EENTRO =        -0.00000000
  eigenvalues    EBANDS =    -12019.04258530
  atomic energy  EATOM  =    105475.44126576
  ---------------------------------------------------
  free energy    TOTEN  =     -1020.18219735 eV

  energy without entropy =    -1020.18219735  energy(sigma->0) =    -1020.18219735


--------------------------------------------------------------------------------------------------------




--------------------------------------- Iteration      1(   7)  ---------------------------------------


    POTLOK:  cpu time      0.1075: real time      0.1081
    SETDIJ:  cpu time      0.4432: real time      0.4446
    TRIAL :  cpu time      7.4037: real time      7.4429
    CORREC:  cpu time      3.3100: real time      3.3255
    CHARGE:  cpu time      0.2536: real time      0.2556
    --------------------------------------------
      LOOP:  cpu time     11.5189: real time     11.5897

 eigenvalue-minimisations  :     0
 total energy-change (2. order) :-0.2790475E-06  (-0.1950757E-06)
 number of electron    1039.0000128 magnetization     119.0000043
 augmentation part      257.3527957 magnetization      80.9088333

 Free energy of the ion-electron system (eV)
  ---------------------------------------------------
  alpha Z        PSCENC =      2952.23721804
  Ewald energy   TEWEN  =    -62509.88167948
  -Hartree energ DENC   =    -37451.23112639
  -exchange      EXHF   =         0.00000000
  -V(xc)+E(xc)   XCENC  =      4603.98515442
  PAW double counting   =    159585.52354979  -161657.21488609
  entropy T*S    EENTRO =        -0.00000000
  eigenvalues    EBANDS =    -12019.04169369
  atomic energy  EATOM  =    105475.44126576
  ---------------------------------------------------
  free energy    TOTEN  =     -1020.18219763 eV

  energy without entropy =    -1020.18219763  energy(sigma->0) =    -1020.18219763


--------------------------------------------------------------------------------------------------------




--------------------------------------- Iteration      1(   8)  ---------------------------------------


    POTLOK:  cpu time      0.1074: real time      0.1079
    SETDIJ:  cpu time      0.4444: real time      0.4458
    TRIAL :  cpu time      7.3839: real time      7.4214
    CORREC:  cpu time      3.3161: real time      3.3324
    EDDIAG:  cpu time      2.3124: real time      2.3244
    CHARGE:  cpu time      0.2537: real time      0.2559
    --------------------------------------------
      LOOP:  cpu time     13.8186: real time     13.8886

 eigenvalue-minimisations  :     0
 total energy-change (2. order) :-0.1917360E-06  (-0.2323923E-06)
 number of electron    1039.0000128 magnetization     119.0000043
 augmentation part      257.3527907 magnetization      80.9088313

 Free energy of the ion-electron system (eV)
  ---------------------------------------------------
  alpha Z        PSCENC =      2952.23721804
  Ewald energy   TEWEN  =    -62509.88167948
  -Hartree energ DENC   =    -37451.23107361
  -exchange      EXHF   =         0.00000000
  -V(xc)+E(xc)   XCENC  =      4603.98516099
  PAW double counting   =    159585.50636334  -161657.19781110
  entropy T*S    EENTRO =        -0.00000000
  eigenvalues    EBANDS =    -12019.04164177
  atomic energy  EATOM  =    105475.44126576
  ---------------------------------------------------
  free energy    TOTEN  =     -1020.18219782 eV

  energy without entropy =    -1020.18219782  energy(sigma->0) =    -1020.18219782


--------------------------------------------------------------------------------------------------------


  average scaling for gradient   0.7864


 average (electrostatic) potential at core
  the test charge radii are     0.9500  0.7215  0.9587  0.9254
  (the norm of the test charge is              1.0000)
       1 -83.5273       2 -83.6413       3 -83.4652       4 -83.4662       5 -83.5241
       6 -83.5821       7 -83.5374       8 -83.5164       9 -83.4747      10 -83.4666
      11 -83.3705      12 -79.1850      13 -83.5568      14 -83.4910      15 -83.3913
      16 -83.4351      17 -83.5109      18 -83.5087      19 -83.4826      20 -83.4133
      21 -83.4694      22 -83.5139      23 -83.4947      24 -83.4694      25 -71.6488
      26 -71.8488      27 -71.5833      28 -71.5956      29 -71.6900      30 -71.7516
      31 -71.8626      32 -71.6705      33 -72.0754      34 -72.2580      35 -71.9661
      36 -71.9770      37 -71.8366      38 -72.0227      39 -72.1447      40 -72.1677
      41 -71.6429      42 -71.7891      43 -71.6323      44 -71.6219      45 -71.6819
      46 -71.7470      47 -71.6806      48 -71.6934      49 -72.0822      50 -72.0683
      51 -72.0342      52 -72.0152      53 -71.9903      54 -72.0322      55 -72.0330
      56 -72.1249      57 -71.5574      58 -71.5897      59 -71.4696      60 -71.2433
      61 -71.8457      62 -71.5999      63 -71.6203      64 -70.9710      65 -71.9832
      66 -72.0333      67 -71.7620      68 -71.7617      69 -71.8854      70 -71.8388
      71 -71.9649      72 -72.0021      73 -71.7533      74 -71.6099      75 -71.5449
      76 -71.6784      77 -71.6197      78 -71.6522      79 -71.5709      80 -71.7924
      81 -72.1126      82 -72.0277      83 -71.9165      84 -71.9636      85 -71.9872
      86 -71.9693      87 -72.1701      88 -72.0393      89 -71.6030      90 -71.6177
      91 -71.5996      92 -71.5463      93 -71.6390      94 -71.6696      95 -71.6746
      96 -71.6087      97 -72.0012      98 -72.0591      99 -72.0129     100 -71.9895
     101 -72.0179     102 -71.9570     103 -72.0212     104 -72.0305     105 -71.5943
     106 -71.6266     107 -71.6087     108 -71.5773     109 -71.6527     110 -71.6729
     111 -71.6649     112 -71.6485     113 -72.0417     114 -72.0514     115 -71.9996
     116 -71.9872     117 -72.0136     118 -71.9652     119 -72.0234     120 -72.0386
     121 -86.8032     122 -86.9402     123 -86.6974     124 -86.7492     125 -86.7793
     126 -86.8712     127 -86.7622     128 -86.7522     129 -86.4524     130 -86.7358
     131 -86.5969     132 -86.7228     133 -86.8576     134 -86.7290     135 -86.6866
     136 -86.6161     137 -86.7280     138 -86.7648     139 -86.7455     140 -86.7111
     141 -86.7438     142 -86.7606     143 -86.7445     144 -86.7115     145 -44.2494



 E-fermi :   3.6576     XC(G=0): -10.0281     alpha+bet :-10.1256

 Fermi energy:         2.8923994986

 spin component 1

 k-point     1 :       0.0000    0.0000    0.0000
  band No.  band energies     occupation 
      1     -55.6720      1.00000
      2     -55.6002      1.00000
      3     -55.5742      1.00000
      4     -55.5460      1.00000
      5     -55.5395      1.00000
      6     -55.5329      1.00000
      7     -55.5315      1.00000
      8     -55.5291      1.00000
      9     -55.5288      1.00000
     10     -55.5236      1.00000
     11     -55.5107      1.00000
     12     -55.5060      1.00000
     13     -55.4974      1.00000
     14     -55.4925      1.00000
     15     -55.4917      1.00000
     16     -55.4876      1.00000
     17     -55.4839      1.00000
     18     -55.4833      1.00000
     19     -55.4812      1.00000
     20     -55.4779      1.00000
     21     -55.4608      1.00000
     22     -55.4590      1.00000
     23     -55.4366      1.00000
     24     -55.4264      1.00000
     25     -55.4185      1.00000
     26     -55.4078      1.00000
     27     -55.4010      1.00000
     28     -55.3971      1.00000
     29     -55.3951      1.00000
     30     -55.3946      1.00000
     31     -55.3934      1.00000
     32     -55.3925      1.00000
     33     -55.3916      1.00000
     34     -55.3883      1.00000
     35     -55.3797      1.00000
     36     -55.3781      1.00000
     37     -55.3774      1.00000
     38     -55.3734      1.00000
     39     -55.3693      1.00000
     40     -55.3686      1.00000
     41     -55.3602      1.00000
     42     -55.3512      1.00000
     43     -55.3503      1.00000
     44     -55.3432      1.00000
     45     -55.3368      1.00000
     46     -55.3263      1.00000
     47     -55.3262      1.00000
     48     -55.3207      1.00000
     49     -55.3195      1.00000
     50     -55.3109      1.00000
     51     -55.3105      1.00000
     52     -55.3076      1.00000
     53     -55.3000      1.00000
     54     -55.2927      1.00000
     55     -55.2859      1.00000
     56     -55.2839      1.00000
     57     -55.2826      1.00000
     58     -55.2796      1.00000
     59     -55.2713      1.00000
     60     -55.2688      1.00000
     61     -55.2681      1.00000
     62     -55.2662      1.00000
     63     -55.2513      1.00000
     64     -55.2332      1.00000
     65     -55.2243      1.00000
     66     -55.2238      1.00000
     67     -55.2217      1.00000
     68     -55.2075      1.00000
     69     -55.1893      1.00000
     70     -51.9392      1.00000
     71     -50.3294      1.00000
     72     -50.0425      1.00000
     73     -18.8481      1.00000
     74     -18.6302      1.00000
     75     -18.5402      1.00000
     76     -18.5171      1.00000
     77     -18.4920      1.00000
     78     -18.4630      1.00000
     79     -18.4204      1.00000
     80     -18.3883      1.00000
     81     -18.3766      1.00000
     82     -18.3390      1.00000
     83     -18.3238      1.00000
     84     -18.3209      1.00000
     85     -18.3064      1.00000
     86     -18.2985      1.00000
     87     -18.2767      1.00000
     88     -18.2727      1.00000
     89     -18.2572      1.00000
     90     -18.2348      1.00000
     91     -18.2301      1.00000
     92     -18.2098      1.00000
     93     -18.1888      1.00000
     94     -18.1750      1.00000
     95     -18.1549      1.00000
     96     -18.1341      1.00000
     97     -18.0936      1.00000
     98     -18.0557      1.00000
     99     -18.0471      1.00000
    100     -16.2884      1.00000
    101     -16.2421      1.00000
    102     -16.2186      1.00000
    103     -16.2047      1.00000
    104     -16.1657      1.00000
    105     -16.1596      1.00000
    106     -16.1435      1.00000
    107     -16.1158      1.00000
    108     -16.0957      1.00000
    109     -16.0793      1.00000
    110     -16.0575      1.00000
    111     -16.0490      1.00000
    112     -16.0408      1.00000
    113     -16.0335      1.00000
    114     -16.0282      1.00000
    115     -16.0224      1.00000
    116     -16.0148      1.00000
    117     -15.9953      1.00000
    118     -15.9906      1.00000
    119     -15.9858      1.00000
    120     -15.9720      1.00000
    121     -15.9692      1.00000
    122     -15.9568      1.00000
    123     -15.9454      1.00000
    124     -15.9291      1.00000
    125     -15.9095      1.00000
    126     -15.8918      1.00000
    127     -15.8825      1.00000
    128     -15.8687      1.00000
    129     -15.8413      1.00000
    130     -15.8318      1.00000
    131     -15.8227      1.00000
    132     -15.8132      1.00000
    133     -15.8123      1.00000
    134     -15.8020      1.00000
    135     -15.7933      1.00000
    136     -15.7769      1.00000
    137     -15.7679      1.00000
    138     -15.7594      1.00000
    139     -15.7557      1.00000
    140     -15.7511      1.00000
    141     -15.7448      1.00000
    142     -15.7381      1.00000
    143     -15.7254      1.00000
    144     -15.7201      1.00000
    145     -15.7134      1.00000
    146     -15.7054      1.00000
    147     -15.6996      1.00000
    148     -15.6947      1.00000
    149     -15.6885      1.00000
    150     -15.6825      1.00000
    151     -15.6770      1.00000
    152     -15.6633      1.00000
    153     -15.6548      1.00000
    154     -15.6507      1.00000
    155     -15.6448      1.00000
    156     -15.6396      1.00000
    157     -15.6284      1.00000
    158     -15.6217      1.00000
    159     -15.6153      1.00000
    160     -15.6127      1.00000
    161     -15.6091      1.00000
    162     -15.6045      1.00000
    163     -15.5951      1.00000
    164     -15.5905      1.00000
    165     -15.5806      1.00000
    166     -15.5611      1.00000
    167     -15.5440      1.00000
    168     -15.5416      1.00000
    169     -15.4957      1.00000
    170     -15.3895      1.00000
    171     -15.2643      1.00000
    172      -7.0558      1.00000
    173      -7.0268      1.00000
    174      -7.0048      1.00000
    175      -6.9918      1.00000
    176      -6.9590      1.00000
    177      -6.9383      1.00000
    178      -6.9321      1.00000
    179      -6.9210      1.00000
    180      -6.9031      1.00000
    181      -6.8702      1.00000
    182      -6.8304      1.00000
    183      -6.6286      1.00000
    184      -6.4198      1.00000
    185      -6.3452      1.00000
    186      -6.3213      1.00000
    187      -6.2221      1.00000
    188      -6.1979      1.00000
    189      -6.1834      1.00000
    190      -6.1582      1.00000
    191      -6.1291      1.00000
    192      -6.1164      1.00000
    193      -6.1105      1.00000
    194      -6.0841      1.00000
    195      -6.0791      1.00000
    196      -6.0685      1.00000
    197      -6.0564      1.00000
    198      -6.0377      1.00000
    199      -6.0230      1.00000
    200      -6.0179      1.00000
    201      -5.9795      1.00000
    202      -5.9631      1.00000
    203      -5.9495      1.00000
    204      -5.9166      1.00000
    205      -5.8976      1.00000
    206      -5.8967      1.00000
    207      -5.8663      1.00000
    208      -5.8333      1.00000
    209      -5.8258      1.00000
    210      -5.8188      1.00000
    211      -5.8129      1.00000
    212      -5.7588      1.00000
    213      -5.7194      1.00000
    214      -5.6540      1.00000
    215      -5.6172      1.00000
    216      -5.6093      1.00000
    217      -5.5460      1.00000
    218      -5.5321      1.00000
    219      -5.5041      1.00000
    220      -5.4725      1.00000
    221      -5.4312      1.00000
    222      -5.4281      1.00000
    223      -5.4209      1.00000
    224      -5.4090      1.00000
    225      -5.3225      1.00000
    226      -5.3003      1.00000
    227      -5.2879      1.00000
    228      -5.2658      1.00000
    229      -5.2592      1.00000
    230      -5.2552      1.00000
    231      -5.2449      1.00000
    232      -5.2213      1.00000
    233      -5.2110      1.00000
    234      -5.2025      1.00000
    235      -5.1943      1.00000
    236      -5.1841      1.00000
    237      -5.1804      1.00000
    238      -5.1787      1.00000
    239      -5.1674      1.00000
    240      -5.1529      1.00000
    241      -5.1451      1.00000
    242      -5.1364      1.00000
    243      -5.1323      1.00000
    244      -5.1229      1.00000
    245      -5.1160      1.00000
    246      -5.1124      1.00000
    247      -5.1045      1.00000
    248      -5.1018      1.00000
    249      -5.0945      1.00000
    250      -5.0872      1.00000
    251      -5.0853      1.00000
    252      -5.0766      1.00000
    253      -5.0741      1.00000
    254      -5.0699      1.00000
    255      -5.0671      1.00000
    256      -5.0604      1.00000
    257      -5.0474      1.00000
    258      -5.0440      1.00000
    259      -5.0391      1.00000
    260      -5.0298      1.00000
    261      -5.0293      1.00000
    262      -5.0243      1.00000
    263      -5.0218      1.00000
    264      -5.0166      1.00000
    265      -5.0130      1.00000
    266      -5.0041      1.00000
    267      -5.0002      1.00000
    268      -4.9928      1.00000
    269      -4.9902      1.00000
    270      -4.9882      1.00000
    271      -4.9843      1.00000
    272      -4.9813      1.00000
    273      -4.9717      1.00000
    274      -4.9695      1.00000
    275      -4.9632      1.00000
    276      -4.9563      1.00000
    277      -4.9496      1.00000
    278      -4.9430      1.00000
    279      -4.9328      1.00000
    280      -4.9303      1.00000
    281      -4.9219      1.00000
    282      -4.9162      1.00000
    283      -4.9091      1.00000
    284      -4.9036      1.00000
    285      -4.8917      1.00000
    286      -4.8777      1.00000
    287      -4.8751      1.00000
    288      -4.8675      1.00000
    289      -4.8661      1.00000
    290      -4.8557      1.00000
    291      -4.8364      1.00000
    292      -4.8321      1.00000
    293      -4.8102      1.00000
    294      -4.8067      1.00000
    295      -4.7983      1.00000
    296      -4.7947      1.00000
    297      -4.7745      1.00000
    298      -4.7363      1.00000
    299      -4.6776      1.00000
    300      -4.6298      1.00000
    301      -4.6107      1.00000
    302      -4.4794      1.00000
    303      -4.4025      1.00000
    304      -4.3367      1.00000
    305      -4.3119      1.00000
    306      -4.3038      1.00000
    307      -4.2667      1.00000
    308      -4.0869      1.00000
    309      -4.0357      1.00000
    310      -3.9833      1.00000
    311      -3.9685      1.00000
    312      -3.9482      1.00000
    313      -3.9197      1.00000
    314      -3.8505      1.00000
    315      -3.5891      1.00000
    316      -3.5627      1.00000
    317      -3.5187      1.00000
    318      -3.4821      1.00000
    319      -3.4307      1.00000
    320      -3.4127      1.00000
    321      -3.3826      1.00000
    322      -3.3628      1.00000
    323      -3.3248      1.00000
    324      -3.2995      1.00000
    325      -3.2624      1.00000
    326      -3.2375      1.00000
    327      -3.1999      1.00000
    328      -3.1803      1.00000
    329      -3.1617      1.00000
    330      -3.0872      1.00000
    331      -3.0222      1.00000
    332      -3.0074      1.00000
    333      -2.9856      1.00000
    334      -2.9353      1.00000
    335      -2.9273      1.00000
    336      -2.9038      1.00000
    337      -2.8850      1.00000
    338      -2.8760      1.00000
    339      -2.8506      1.00000
    340      -2.8451      1.00000
    341      -2.8358      1.00000
    342      -2.8070      1.00000
    343      -2.7863      1.00000
    344      -2.7803      1.00000
    345      -2.7712      1.00000
    346      -2.7573      1.00000
    347      -2.7543      1.00000
    348      -2.7404      1.00000
    349      -2.7306      1.00000
    350      -2.7138      1.00000
    351      -2.6908      1.00000
    352      -2.6775      1.00000
    353      -2.6735      1.00000
    354      -2.6680      1.00000
    355      -2.6567      1.00000
    356      -2.6405      1.00000
    357      -2.6184      1.00000
    358      -2.5908      1.00000
    359      -2.5691      1.00000
    360      -2.5404      1.00000
    361      -2.4993      1.00000
    362      -2.4838      1.00000
    363      -2.4717      1.00000
    364      -2.4271      1.00000
    365      -2.4121      1.00000
    366      -2.4017      1.00000
    367      -2.3923      1.00000
    368      -2.3797      1.00000
    369      -2.3721      1.00000
    370      -2.3429      1.00000
    371      -2.3247      1.00000
    372      -2.3158      1.00000
    373      -2.3124      1.00000
    374      -2.2671      1.00000
    375      -2.2535      1.00000
    376      -2.2429      1.00000
    377      -2.2353      1.00000
    378      -2.2143      1.00000
    379      -2.1992      1.00000
    380      -2.1297      1.00000
    381      -1.9893      1.00000
    382      -1.8527      1.00000
    383      -1.6920      1.00000
    384      -1.6124      1.00000
    385      -1.5454      1.00000
    386      -1.4906      1.00000
    387      -1.4501      1.00000
    388      -1.4138      1.00000
    389      -1.4053      1.00000
    390      -1.3465      1.00000
    391      -1.3278      1.00000
    392      -1.3204      1.00000
    393      -1.2322      1.00000
    394      -1.1712      1.00000
    395      -1.1569      1.00000
    396      -1.1531      1.00000
    397      -1.1021      1.00000
    398      -1.0812      1.00000
    399      -1.0507      1.00000
    400      -1.0364      1.00000
    401      -0.9946      1.00000
    402      -0.9786      1.00000
    403      -0.9638      1.00000
    404      -0.9555      1.00000
    405      -0.9347      1.00000
    406      -0.8857      1.00000
    407      -0.8694      1.00000
    408      -0.8620      1.00000
    409      -0.8497      1.00000
    410      -0.8345      1.00000
    411      -0.8182      1.00000
    412      -0.8027      1.00000
    413      -0.7753      1.00000
    414      -0.7615      1.00000
    415      -0.7401      1.00000
    416      -0.6654      1.00000
    417      -0.6540      1.00000
    418      -0.6071      1.00000
    419      -0.5899      1.00000
    420      -0.5820      1.00000
    421      -0.5427      1.00000
    422      -0.5272      1.00000
    423      -0.5192      1.00000
    424      -0.5001      1.00000
    425      -0.4906      1.00000
    426      -0.4748      1.00000
    427      -0.4440      1.00000
    428      -0.4235      1.00000
    429      -0.4145      1.00000
    430      -0.3528      1.00000
    431      -0.3432      1.00000
    432      -0.3314      1.00000
    433      -0.3229      1.00000
    434      -0.3118      1.00000
    435      -0.2710      1.00000
    436      -0.2574      1.00000
    437      -0.2492      1.00000
    438      -0.2243      1.00000
    439      -0.2183      1.00000
    440      -0.2098      1.00000
    441      -0.1904      1.00000
    442      -0.1834      1.00000
    443      -0.1608      1.00000
    444      -0.1551      1.00000
    445      -0.1478      1.00000
    446      -0.1363      1.00000
    447      -0.1314      1.00000
    448      -0.1203      1.00000
    449      -0.0875      1.00000
    450      -0.0714      1.00000
    451      -0.0366      1.00000
    452      -0.0120      1.00000
    453      -0.0006      1.00000
    454       0.0197      1.00000
    455       0.0382      1.00000
    456       0.0474      1.00000
    457       0.0574      1.00000
    458       0.0790      1.00000
    459       0.0830      1.00000
    460       0.0969      1.00000
    461       0.1246      1.00000
    462       0.1549      1.00000
    463       0.1824      1.00000
    464       0.1972      1.00000
    465       0.2038      1.00000
    466       0.2119      1.00000
    467       0.2348      1.00000
    468       0.2471      1.00000
    469       0.2623      1.00000
    470       0.2810      1.00000
    471       0.2854      1.00000
    472       0.3247      1.00000
    473       0.3598      1.00000
    474       0.3724      1.00000
    475       0.4103      1.00000
    476       0.4167      1.00000
    477       0.4455      1.00000
    478       0.4509      1.00000
    479       0.4582      1.00000
    480       0.4685      1.00000
    481       0.4991      1.00000
    482       0.5055      1.00000
    483       0.5196      1.00000
    484       0.5341      1.00000
    485       0.5551      1.00000
    486       0.5823      1.00000
    487       0.6704      1.00000
    488       0.6759      1.00000
    489       0.7069      1.00000
    490       0.7545      1.00000
    491       0.7581      1.00000
    492       0.7945      1.00000
    493       0.8017      1.00000
    494       0.8174      1.00000
    495       0.8382      1.00000
    496       0.8451      1.00000
    497       0.8780      1.00000
    498       0.8885      1.00000
    499       0.8946      1.00000
    500       0.9049      1.00000
    501       0.9270      1.00000
    502       0.9318      1.00000
    503       0.9520      1.00000
    504       0.9699      1.00000
    505       0.9735      1.00000
    506       0.9835      1.00000
    507       0.9992      1.00000
    508       1.0199      1.00000
    509       1.0450      1.00000
    510       1.0818      1.00000
    511       1.0897      1.00000
    512       1.1075      1.00000
    513       1.1320      1.00000
    514       1.1378      1.00000
    515       1.1496      1.00000
    516       1.1857      1.00000
    517       1.1988      1.00000
    518       1.2023      1.00000
    519       1.2112      1.00000
    520       1.2343      1.00000
    521       1.2710      1.00000
    522       1.2913      1.00000
    523       1.3433      1.00000
    524       1.3571      1.00000
    525       1.3739      1.00000
    526       1.3835      1.00000
    527       1.4038      1.00000
    528       1.4205      1.00000
    529       1.4472      1.00000
    530       1.4668      1.00000
    531       1.4763      1.00000
    532       1.4805      1.00000
    533       1.4941      1.00000
    534       1.5107      1.00000
    535       1.5114      1.00000
    536       1.5158      1.00000
    537       1.5320      1.00000
    538       1.5371      1.00000
    539       1.5533      1.00000
    540       1.5619      1.00000
    541       1.5712      1.00000
    542       1.5772      1.00000
    543       1.5819      1.00000
    544       1.5972      1.00000
    545       1.6048      1.00000
    546       1.6145      1.00000
    547       1.6223      1.00000
    548       1.6231      1.00000
    549       1.6397      1.00000
    550       1.6464      1.00000
    551       1.6627      1.00000
    552       1.6729      1.00000
    553       1.6873      1.00000
    554       1.6963      1.00000
    555       1.7237      1.00000
    556       1.7404      1.00000
    557       1.7605      1.00000
    558       1.7657      1.00000
    559       1.7883      1.00000
    560       1.8043      1.00000
    561       1.8117      1.00000
    562       1.8391      1.00000
    563       1.8431      1.00000
    564       1.8694      1.00000
    565       1.8712      1.00000
    566       1.9093      1.00000
    567       1.9279      1.00000
    568       1.9538      1.00000
    569       1.9626      1.00000
    570       1.9818      1.00000
    571       1.9911      1.00000
    572       2.0204      1.00000
    573       2.0275      1.00000
    574       2.0389      1.00000
    575       2.0664      1.00000
    576       2.0883      1.00000
    577       2.1071      1.00000
    578       2.1554      1.00000
    579       2.6276      1.00000
    580       7.4179      0.00000
    581       8.2661      0.00000
    582       8.3045      0.00000
    583       9.3950      0.00000
    584       9.4225      0.00000
    585       9.5135      0.00000
    586       9.8392      0.00000
    587       9.8926      0.00000
    588       9.9392      0.00000
    589       9.9712      0.00000
    590       9.9981      0.00000
    591      10.0093      0.00000
    592      10.0174      0.00000
    593      10.0425      0.00000
    594      10.0638      0.00000
    595      10.0725      0.00000
    596      10.2564      0.00000
    597      10.2813      0.00000
    598      10.2866      0.00000
    599      10.3215      0.00000
    600      10.5792      0.00000
    601      10.6321      0.00000
    602      10.6534      0.00000
    603      10.6633      0.00000
    604      10.6946      0.00000
    605      10.7187      0.00000
    606      10.7490      0.00000
    607      10.7590      0.00000
    608      10.7734      0.00000
    609      10.8017      0.00000
    610      10.8145      0.00000
    611      10.8309      0.00000
    612      10.8556      0.00000
    613      10.8803      0.00000
    614      10.8982      0.00000
    615      10.9634      0.00000
    616      10.9709      0.00000
    617      11.0195      0.00000
    618      11.0430      0.00000
    619      11.0591      0.00000
    620      11.0771      0.00000
    621      11.0888      0.00000
    622      11.0995      0.00000
    623      11.1214      0.00000
    624      11.1438      0.00000
    625      11.1893      0.00000
    626      11.2145      0.00000
    627      11.2182      0.00000
    628      11.2466      0.00000
    629      11.2717      0.00000
    630      11.2895      0.00000
    631      11.3210      0.00000
    632      11.3648      0.00000
    633      11.3997      0.00000
    634      11.4233      0.00000
    635      11.4583      0.00000
    636      11.4610      0.00000
    637      11.4786      0.00000
    638      11.4965      0.00000
    639      11.5106      0.00000
    640      11.5198      0.00000
    641      11.5496      0.00000
    642      11.5659      0.00000
    643      11.5963      0.00000
    644      11.5999      0.00000
    645      11.6236      0.00000
    646      11.6831      0.00000
    647      11.7289      0.00000
    648      11.7714      0.00000
    649      11.7823      0.00000
    650      11.7995      0.00000
    651      11.8183      0.00000
    652      11.8335      0.00000
    653      11.8544      0.00000
    654      11.8777      0.00000
    655      11.9061      0.00000
    656      11.9454      0.00000
    657      11.9564      0.00000
    658      11.9927      0.00000
    659      12.0340      0.00000
    660      12.0942      0.00000
    661      12.1919      0.00000
    662      12.1973      0.00000
    663      12.2233      0.00000
    664      12.2335      0.00000
    665      12.2434      0.00000
    666      12.2574      0.00000
    667      12.2754      0.00000
    668      12.2964      0.00000
    669      12.4266      0.00000
    670      12.5018      0.00000
    671      12.5325      0.00000
    672      12.5628      0.00000
    673      12.5692      0.00000
    674      12.5884      0.00000
    675      12.6116      0.00000
    676      12.6259      0.00000
    677      12.6290      0.00000
    678      12.8110      0.00000
    679      12.8446      0.00000
    680      12.9177      0.00000
    681      12.9390      0.00000
    682      12.9914      0.00000
    683      13.0052      0.00000
    684      13.0232      0.00000
    685      13.0433      0.00000
    686      13.0598      0.00000
    687      13.1056      0.00000
    688      13.1160      0.00000
    689      13.1402      0.00000
    690      13.1652      0.00000
    691      13.2099      0.00000
    692      13.2584      0.00000
    693      13.3251      0.00000
    694      13.4992      0.00000
    695      13.5605      0.00000
    696      13.5845      0.00000

 k-point     2 :       0.3333    0.0000    0.0000
  band No.  band energies     occupation 
      1     -55.6720      1.00000
      2     -55.6002      1.00000
      3     -55.5742      1.00000
      4     -55.5460      1.00000
      5     -55.5395      1.00000
      6     -55.5329      1.00000
      7     -55.5315      1.00000
      8     -55.5291      1.00000
      9     -55.5288      1.00000
     10     -55.5236      1.00000
     11     -55.5107      1.00000
     12     -55.5060      1.00000
     13     -55.4974      1.00000
     14     -55.4925      1.00000
     15     -55.4917      1.00000
     16     -55.4876      1.00000
     17     -55.4839      1.00000
     18     -55.4833      1.00000
     19     -55.4812      1.00000
     20     -55.4779      1.00000
     21     -55.4608      1.00000
     22     -55.4590      1.00000
     23     -55.4366      1.00000
     24     -55.4264      1.00000
     25     -55.4185      1.00000
     26     -55.4078      1.00000
     27     -55.4010      1.00000
     28     -55.3971      1.00000
     29     -55.3951      1.00000
     30     -55.3946      1.00000
     31     -55.3934      1.00000
     32     -55.3925      1.00000
     33     -55.3916      1.00000
     34     -55.3883      1.00000
     35     -55.3797      1.00000
     36     -55.3781      1.00000
     37     -55.3774      1.00000
     38     -55.3734      1.00000
     39     -55.3693      1.00000
     40     -55.3686      1.00000
     41     -55.3602      1.00000
     42     -55.3512      1.00000
     43     -55.3503      1.00000
     44     -55.3432      1.00000
     45     -55.3368      1.00000
     46     -55.3263      1.00000
     47     -55.3262      1.00000
     48     -55.3207      1.00000
     49     -55.3195      1.00000
     50     -55.3109      1.00000
     51     -55.3105      1.00000
     52     -55.3076      1.00000
     53     -55.3000      1.00000
     54     -55.2927      1.00000
     55     -55.2859      1.00000
     56     -55.2839      1.00000
     57     -55.2826      1.00000
     58     -55.2796      1.00000
     59     -55.2713      1.00000
     60     -55.2688      1.00000
     61     -55.2681      1.00000
     62     -55.2662      1.00000
     63     -55.2513      1.00000
     64     -55.2332      1.00000
     65     -55.2243      1.00000
     66     -55.2238      1.00000
     67     -55.2217      1.00000
     68     -55.2075      1.00000
     69     -55.1893      1.00000
     70     -51.9392      1.00000
     71     -50.3294      1.00000
     72     -50.0425      1.00000
     73     -18.8486      1.00000
     74     -18.6000      1.00000
     75     -18.5327      1.00000
     76     -18.4979      1.00000
     77     -18.4889      1.00000
     78     -18.4636      1.00000
     79     -18.4393      1.00000
     80     -18.4047      1.00000
     81     -18.3871      1.00000
     82     -18.3769      1.00000
     83     -18.3568      1.00000
     84     -18.3365      1.00000
     85     -18.3153      1.00000
     86     -18.2935      1.00000
     87     -18.2753      1.00000
     88     -18.2599      1.00000
     89     -18.2428      1.00000
     90     -18.2258      1.00000
     91     -18.2106      1.00000
     92     -18.2016      1.00000
     93     -18.1881      1.00000
     94     -18.1710      1.00000
     95     -18.1553      1.00000
     96     -18.1345      1.00000
     97     -18.0883      1.00000
     98     -18.0565      1.00000
     99     -18.0485      1.00000
    100     -16.2779      1.00000
    101     -16.2317      1.00000
    102     -16.2040      1.00000
    103     -16.1833      1.00000
    104     -16.1534      1.00000
    105     -16.1501      1.00000
    106     -16.1346      1.00000
    107     -16.1159      1.00000
    108     -16.1044      1.00000
    109     -16.0918      1.00000
    110     -16.0855      1.00000
    111     -16.0760      1.00000
    112     -16.0651      1.00000
    113     -16.0578      1.00000
    114     -16.0418      1.00000
    115     -16.0300      1.00000
    116     -16.0243      1.00000
    117     -16.0178      1.00000
    118     -16.0068      1.00000
    119     -15.9966      1.00000
    120     -15.9859      1.00000
    121     -15.9475      1.00000
    122     -15.9399      1.00000
    123     -15.9226      1.00000
    124     -15.9115      1.00000
    125     -15.8847      1.00000
    126     -15.8619      1.00000
    127     -15.8484      1.00000
    128     -15.8368      1.00000
    129     -15.8320      1.00000
    130     -15.8183      1.00000
    131     -15.8156      1.00000
    132     -15.8058      1.00000
    133     -15.7969      1.00000
    134     -15.7914      1.00000
    135     -15.7852      1.00000
    136     -15.7767      1.00000
    137     -15.7685      1.00000
    138     -15.7632      1.00000
    139     -15.7594      1.00000
    140     -15.7533      1.00000
    141     -15.7461      1.00000
    142     -15.7441      1.00000
    143     -15.7411      1.00000
    144     -15.7320      1.00000
    145     -15.7213      1.00000
    146     -15.7188      1.00000
    147     -15.7041      1.00000
    148     -15.6963      1.00000
    149     -15.6920      1.00000
    150     -15.6800      1.00000
    151     -15.6762      1.00000
    152     -15.6650      1.00000
    153     -15.6605      1.00000
    154     -15.6516      1.00000
    155     -15.6467      1.00000
    156     -15.6418      1.00000
    157     -15.6339      1.00000
    158     -15.6278      1.00000
    159     -15.6205      1.00000
    160     -15.6135      1.00000
    161     -15.6093      1.00000
    162     -15.6020      1.00000
    163     -15.5985      1.00000
    164     -15.5940      1.00000
    165     -15.5832      1.00000
    166     -15.5714      1.00000
    167     -15.5512      1.00000
    168     -15.5352      1.00000
    169     -15.5116      1.00000
    170     -15.3851      1.00000
    171     -15.2711      1.00000
    172      -6.9447      1.00000
    173      -6.9294      1.00000
    174      -6.9012      1.00000
    175      -6.8834      1.00000
    176      -6.8533      1.00000
    177      -6.8466      1.00000
    178      -6.8335      1.00000
    179      -6.8100      1.00000
    180      -6.7618      1.00000
    181      -6.7193      1.00000
    182      -6.6698      1.00000
    183      -6.6153      1.00000
    184      -6.6010      1.00000
    185      -6.5693      1.00000
    186      -6.5330      1.00000
    187      -6.5226      1.00000
    188      -6.5050      1.00000
    189      -6.4905      1.00000
    190      -6.4541      1.00000
    191      -6.4225      1.00000
    192      -6.4029      1.00000
    193      -6.3432      1.00000
    194      -6.2406      1.00000
    195      -6.0862      1.00000
    196      -6.0070      1.00000
    197      -5.9894      1.00000
    198      -5.9855      1.00000
    199      -5.9680      1.00000
    200      -5.9560      1.00000
    201      -5.9406      1.00000
    202      -5.9203      1.00000
    203      -5.9068      1.00000
    204      -5.8636      1.00000
    205      -5.8380      1.00000
    206      -5.8328      1.00000
    207      -5.8182      1.00000
    208      -5.8067      1.00000
    209      -5.8013      1.00000
    210      -5.7948      1.00000
    211      -5.7857      1.00000
    212      -5.7786      1.00000
    213      -5.7634      1.00000
    214      -5.6848      1.00000
    215      -5.6315      1.00000
    216      -5.6103      1.00000
    217      -5.5426      1.00000
    218      -5.5324      1.00000
    219      -5.5192      1.00000
    220      -5.4801      1.00000
    221      -5.4323      1.00000
    222      -5.3753      1.00000
    223      -5.3669      1.00000
    224      -5.3353      1.00000
    225      -5.2866      1.00000
    226      -5.2719      1.00000
    227      -5.2568      1.00000
    228      -5.2417      1.00000
    229      -5.2353      1.00000
    230      -5.2276      1.00000
    231      -5.2215      1.00000
    232      -5.2139      1.00000
    233      -5.2052      1.00000
    234      -5.1950      1.00000
    235      -5.1853      1.00000
    236      -5.1782      1.00000
    237      -5.1618      1.00000
    238      -5.1555      1.00000
    239      -5.1483      1.00000
    240      -5.1432      1.00000
    241      -5.1283      1.00000
    242      -5.1244      1.00000
    243      -5.1196      1.00000
    244      -5.1111      1.00000
    245      -5.1044      1.00000
    246      -5.1002      1.00000
    247      -5.0907      1.00000
    248      -5.0862      1.00000
    249      -5.0825      1.00000
    250      -5.0782      1.00000
    251      -5.0680      1.00000
    252      -5.0657      1.00000
    253      -5.0593      1.00000
    254      -5.0530      1.00000
    255      -5.0488      1.00000
    256      -5.0451      1.00000
    257      -5.0420      1.00000
    258      -5.0296      1.00000
    259      -5.0256      1.00000
    260      -5.0227      1.00000
    261      -5.0198      1.00000
    262      -5.0119      1.00000
    263      -5.0098      1.00000
    264      -5.0059      1.00000
    265      -5.0039      1.00000
    266      -4.9988      1.00000
    267      -4.9976      1.00000
    268      -4.9894      1.00000
    269      -4.9789      1.00000
    270      -4.9722      1.00000
    271      -4.9652      1.00000
    272      -4.9635      1.00000
    273      -4.9570      1.00000
    274      -4.9501      1.00000
    275      -4.9444      1.00000
    276      -4.9296      1.00000
    277      -4.9231      1.00000
    278      -4.9195      1.00000
    279      -4.9143      1.00000
    280      -4.9072      1.00000
    281      -4.9016      1.00000
    282      -4.8946      1.00000
    283      -4.8921      1.00000
    284      -4.8852      1.00000
    285      -4.8742      1.00000
    286      -4.8659      1.00000
    287      -4.8568      1.00000
    288      -4.8536      1.00000
    289      -4.8334      1.00000
    290      -4.8145      1.00000
    291      -4.8041      1.00000
    292      -4.7905      1.00000
    293      -4.7612      1.00000
    294      -4.7220      1.00000
    295      -4.7061      1.00000
    296      -4.6601      1.00000
    297      -4.6387      1.00000
    298      -4.6240      1.00000
    299      -4.6050      1.00000
    300      -4.5873      1.00000
    301      -4.5674      1.00000
    302      -4.4479      1.00000
    303      -4.4081      1.00000
    304      -4.3749      1.00000
    305      -4.3615      1.00000
    306      -4.3432      1.00000
    307      -4.2822      1.00000
    308      -4.2551      1.00000
    309      -4.1821      1.00000
    310      -4.1708      1.00000
    311      -4.1239      1.00000
    312      -4.0970      1.00000
    313      -3.9088      1.00000
    314      -3.8574      1.00000
    315      -3.7783      1.00000
    316      -3.6755      1.00000
    317      -3.5257      1.00000
    318      -3.4612      1.00000
    319      -3.4143      1.00000
    320      -3.3772      1.00000
    321      -3.3551      1.00000
    322      -3.3241      1.00000
    323      -3.2646      1.00000
    324      -3.2398      1.00000
    325      -3.1919      1.00000
    326      -3.1372      1.00000
    327      -3.1225      1.00000
    328      -3.1162      1.00000
    329      -3.0922      1.00000
    330      -3.0818      1.00000
    331      -3.0693      1.00000
    332      -3.0588      1.00000
    333      -3.0402      1.00000
    334      -3.0303      1.00000
    335      -3.0153      1.00000
    336      -3.0000      1.00000
    337      -2.9789      1.00000
    338      -2.9430      1.00000
    339      -2.9107      1.00000
    340      -2.8911      1.00000
    341      -2.8673      1.00000
    342      -2.8565      1.00000
    343      -2.8366      1.00000
    344      -2.8278      1.00000
    345      -2.8078      1.00000
    346      -2.7991      1.00000
    347      -2.7883      1.00000
    348      -2.7718      1.00000
    349      -2.7559      1.00000
    350      -2.7448      1.00000
    351      -2.7309      1.00000
    352      -2.7240      1.00000
    353      -2.7026      1.00000
    354      -2.6695      1.00000
    355      -2.6622      1.00000
    356      -2.6596      1.00000
    357      -2.6367      1.00000
    358      -2.6305      1.00000
    359      -2.5880      1.00000
    360      -2.5761      1.00000
    361      -2.5253      1.00000
    362      -2.5009      1.00000
    363      -2.4746      1.00000
    364      -2.4559      1.00000
    365      -2.4317      1.00000
    366      -2.4192      1.00000
    367      -2.3769      1.00000
    368      -2.3584      1.00000
    369      -2.3515      1.00000
    370      -2.3141      1.00000
    371      -2.3086      1.00000
    372      -2.2844      1.00000
    373      -2.2756      1.00000
    374      -2.2552      1.00000
    375      -2.2480      1.00000
    376      -2.2381      1.00000
    377      -2.2204      1.00000
    378      -2.2011      1.00000
    379      -2.1775      1.00000
    380      -2.1346      1.00000
    381      -2.0537      1.00000
    382      -1.9728      1.00000
    383      -1.7060      1.00000
    384      -1.6208      1.00000
    385      -1.5013      1.00000
    386      -1.4201      1.00000
    387      -1.3795      1.00000
    388      -1.3598      1.00000
    389      -1.3325      1.00000
    390      -1.2723      1.00000
    391      -1.2622      1.00000
    392      -1.2415      1.00000
    393      -1.2262      1.00000
    394      -1.2074      1.00000
    395      -1.1572      1.00000
    396      -1.1078      1.00000
    397      -1.0872      1.00000
    398      -1.0505      1.00000
    399      -1.0234      1.00000
    400      -0.9893      1.00000
    401      -0.9444      1.00000
    402      -0.9395      1.00000
    403      -0.9259      1.00000
    404      -0.9074      1.00000
    405      -0.8992      1.00000
    406      -0.8859      1.00000
    407      -0.8669      1.00000
    408      -0.8541      1.00000
    409      -0.8317      1.00000
    410      -0.7834      1.00000
    411      -0.7691      1.00000
    412      -0.7625      1.00000
    413      -0.7409      1.00000
    414      -0.7158      1.00000
    415      -0.6972      1.00000
    416      -0.6801      1.00000
    417      -0.6462      1.00000
    418      -0.6337      1.00000
    419      -0.6136      1.00000
    420      -0.5649      1.00000
    421      -0.5442      1.00000
    422      -0.5228      1.00000
    423      -0.4829      1.00000
    424      -0.4604      1.00000
    425      -0.4417      1.00000
    426      -0.4281      1.00000
    427      -0.4112      1.00000
    428      -0.3968      1.00000
    429      -0.3746      1.00000
    430      -0.3688      1.00000
    431      -0.3519      1.00000
    432      -0.3448      1.00000
    433      -0.3352      1.00000
    434      -0.3087      1.00000
    435      -0.2915      1.00000
    436      -0.2619      1.00000
    437      -0.2525      1.00000
    438      -0.2054      1.00000
    439      -0.1921      1.00000
    440      -0.1779      1.00000
    441      -0.1636      1.00000
    442      -0.1588      1.00000
    443      -0.1350      1.00000
    444      -0.1274      1.00000
    445      -0.1132      1.00000
    446      -0.0961      1.00000
    447      -0.0742      1.00000
    448      -0.0621      1.00000
    449      -0.0560      1.00000
    450      -0.0439      1.00000
    451      -0.0290      1.00000
    452      -0.0134      1.00000
    453       0.0138      1.00000
    454       0.0401      1.00000
    455       0.0511      1.00000
    456       0.0683      1.00000
    457       0.0916      1.00000
    458       0.0995      1.00000
    459       0.1099      1.00000
    460       0.1292      1.00000
    461       0.1389      1.00000
    462       0.1539      1.00000
    463       0.1619      1.00000
    464       0.1759      1.00000
    465       0.1991      1.00000
    466       0.2048      1.00000
    467       0.2089      1.00000
    468       0.2216      1.00000
    469       0.2424      1.00000
    470       0.2587      1.00000
    471       0.2674      1.00000
    472       0.2841      1.00000
    473       0.3004      1.00000
    474       0.3062      1.00000
    475       0.3240      1.00000
    476       0.3357      1.00000
    477       0.3611      1.00000
    478       0.3861      1.00000
    479       0.4075      1.00000
    480       0.4323      1.00000
    481       0.4669      1.00000
    482       0.4984      1.00000
    483       0.5136      1.00000
    484       0.5296      1.00000
    485       0.5484      1.00000
    486       0.5619      1.00000
    487       0.5776      1.00000
    488       0.6080      1.00000
    489       0.6717      1.00000
    490       0.7179      1.00000
    491       0.7762      1.00000
    492       0.7818      1.00000
    493       0.7953      1.00000
    494       0.8016      1.00000
    495       0.8099      1.00000
    496       0.8190      1.00000
    497       0.8378      1.00000
    498       0.8475      1.00000
    499       0.8716      1.00000
    500       0.8876      1.00000
    501       0.9133      1.00000
    502       0.9271      1.00000
    503       0.9454      1.00000
    504       0.9727      1.00000
    505       0.9818      1.00000
    506       0.9985      1.00000
    507       1.0134      1.00000
    508       1.0285      1.00000
    509       1.0409      1.00000
    510       1.0578      1.00000
    511       1.0636      1.00000
    512       1.0869      1.00000
    513       1.1058      1.00000
    514       1.1414      1.00000
    515       1.1555      1.00000
    516       1.1701      1.00000
    517       1.1964      1.00000
    518       1.2145      1.00000
    519       1.2227      1.00000
    520       1.2311      1.00000
    521       1.2406      1.00000
    522       1.2893      1.00000
    523       1.3081      1.00000
    524       1.3232      1.00000
    525       1.3293      1.00000
    526       1.3487      1.00000
    527       1.3587      1.00000
    528       1.3649      1.00000
    529       1.3851      1.00000
    530       1.3948      1.00000
    531       1.4115      1.00000
    532       1.4316      1.00000
    533       1.4598      1.00000
    534       1.4713      1.00000
    535       1.5052      1.00000
    536       1.5175      1.00000
    537       1.5402      1.00000
    538       1.5619      1.00000
    539       1.5650      1.00000
    540       1.5811      1.00000
    541       1.5901      1.00000
    542       1.6096      1.00000
    543       1.6112      1.00000
    544       1.6202      1.00000
    545       1.6335      1.00000
    546       1.6603      1.00000
    547       1.6764      1.00000
    548       1.6908      1.00000
    549       1.7061      1.00000
    550       1.7212      1.00000
    551       1.7417      1.00000
    552       1.7495      1.00000
    553       1.7553      1.00000
    554       1.7605      1.00000
    555       1.7774      1.00000
    556       1.7828      1.00000
    557       1.7977      1.00000
    558       1.8017      1.00000
    559       1.8157      1.00000
    560       1.8195      1.00000
    561       1.8265      1.00000
    562       1.8423      1.00000
    563       1.8501      1.00000
    564       1.8624      1.00000
    565       1.8796      1.00000
    566       1.8945      1.00000
    567       1.9128      1.00000
    568       1.9171      1.00000
    569       1.9314      1.00000
    570       1.9520      1.00000
    571       1.9744      1.00000
    572       1.9868      1.00000
    573       1.9929      1.00000
    574       2.0079      1.00000
    575       2.0327      1.00000
    576       2.0588      1.00000
    577       2.0775      1.00000
    578       2.1325      1.00000
    579       2.6203      1.00000
    580       7.7792      0.00000
    581       8.5297      0.00000
    582       8.5742      0.00000
    583       8.6677      0.00000
    584       9.2442      0.00000
    585       9.2786      0.00000
    586       9.4379      0.00000
    587       9.4647      0.00000
    588       9.9468      0.00000
    589      10.0033      0.00000
    590      10.0341      0.00000
    591      10.0391      0.00000
    592      10.0594      0.00000
    593      10.0788      0.00000
    594      10.1505      0.00000
    595      10.2591      0.00000
    596      10.2771      0.00000
    597      10.3945      0.00000
    598      10.4107      0.00000
    599      10.4817      0.00000
    600      10.5877      0.00000
    601      10.6328      0.00000
    602      10.6541      0.00000
    603      10.6616      0.00000
    604      10.6771      0.00000
    605      10.6894      0.00000
    606      10.7248      0.00000
    607      10.8311      0.00000
    608      10.8490      0.00000
    609      10.8820      0.00000
    610      10.9019      0.00000
    611      10.9288      0.00000
    612      10.9466      0.00000
    613      10.9654      0.00000
    614      10.9991      0.00000
    615      11.0194      0.00000
    616      11.0364      0.00000
    617      11.0561      0.00000
    618      11.0719      0.00000
    619      11.0867      0.00000
    620      11.1102      0.00000
    621      11.1126      0.00000
    622      11.1709      0.00000
    623      11.1781      0.00000
    624      11.2099      0.00000
    625      11.2409      0.00000
    626      11.2490      0.00000
    627      11.2695      0.00000
    628      11.2811      0.00000
    629      11.3047      0.00000
    630      11.3141      0.00000
    631      11.3502      0.00000
    632      11.3572      0.00000
    633      11.3744      0.00000
    634      11.3912      0.00000
    635      11.3980      0.00000
    636      11.4052      0.00000
    637      11.4171      0.00000
    638      11.4385      0.00000
    639      11.4520      0.00000
    640      11.4669      0.00000
    641      11.4841      0.00000
    642      11.5347      0.00000
    643      11.5434      0.00000
    644      11.6792      0.00000
    645      11.6991      0.00000
    646      11.7225      0.00000
    647      11.7531      0.00000
    648      11.7821      0.00000
    649      11.8068      0.00000
    650      11.8270      0.00000
    651      11.8360      0.00000
    652      11.8531      0.00000
    653      11.8733      0.00000
    654      11.8859      0.00000
    655      11.9077      0.00000
    656      11.9287      0.00000
    657      11.9387      0.00000
    658      11.9595      0.00000
    659      11.9983      0.00000
    660      12.0205      0.00000
    661      12.0616      0.00000
    662      12.0785      0.00000
    663      12.1440      0.00000
    664      12.1625      0.00000
    665      12.1734      0.00000
    666      12.1837      0.00000
    667      12.2035      0.00000
    668      12.2221      0.00000
    669      12.2418      0.00000
    670      12.5145      0.00000
    671      12.5750      0.00000
    672      12.5971      0.00000
    673      12.6834      0.00000
    674      12.7396      0.00000
    675      12.7850      0.00000
    676      12.8031      0.00000
    677      12.8314      0.00000
    678      12.8766      0.00000
    679      12.8897      0.00000
    680      12.9003      0.00000
    681      12.9275      0.00000
    682      12.9990      0.00000
    683      13.0063      0.00000
    684      13.0239      0.00000
    685      13.0415      0.00000
    686      13.0623      0.00000
    687      13.0782      0.00000
    688      13.1078      0.00000
    689      13.1139      0.00000
    690      13.1326      0.00000
    691      13.1782      0.00000
    692      13.2315      0.00000
    693      13.2635      0.00000
    694      13.3827      0.00000
    695      13.4302      0.00000
    696      13.4613      0.00000

 k-point     3 :       0.0000    0.0000    0.3333
  band No.  band energies     occupation 
      1     -55.6720      1.00000
      2     -55.6002      1.00000
      3     -55.5742      1.00000
      4     -55.5460      1.00000
      5     -55.5395      1.00000
      6     -55.5329      1.00000
      7     -55.5315      1.00000
      8     -55.5291      1.00000
      9     -55.5288      1.00000
     10     -55.5236      1.00000
     11     -55.5107      1.00000
     12     -55.5060      1.00000
     13     -55.4974      1.00000
     14     -55.4925      1.00000
     15     -55.4917      1.00000
     16     -55.4876      1.00000
     17     -55.4839      1.00000
     18     -55.4833      1.00000
     19     -55.4812      1.00000
     20     -55.4779      1.00000
     21     -55.4608      1.00000
     22     -55.4590      1.00000
     23     -55.4366      1.00000
     24     -55.4264      1.00000
     25     -55.4185      1.00000
     26     -55.4078      1.00000
     27     -55.4010      1.00000
     28     -55.3971      1.00000
     29     -55.3951      1.00000
     30     -55.3946      1.00000
     31     -55.3934      1.00000
     32     -55.3925      1.00000
     33     -55.3916      1.00000
     34     -55.3883      1.00000
     35     -55.3797      1.00000
     36     -55.3781      1.00000
     37     -55.3774      1.00000
     38     -55.3734      1.00000
     39     -55.3693      1.00000
     40     -55.3686      1.00000
     41     -55.3602      1.00000
     42     -55.3512      1.00000
     43     -55.3503      1.00000
     44     -55.3432      1.00000
     45     -55.3368      1.00000
     46     -55.3263      1.00000
     47     -55.3262      1.00000
     48     -55.3207      1.00000
     49     -55.3195      1.00000
     50     -55.3109      1.00000
     51     -55.3105      1.00000
     52     -55.3076      1.00000
     53     -55.3000      1.00000
     54     -55.2927      1.00000
     55     -55.2859      1.00000
     56     -55.2839      1.00000
     57     -55.2826      1.00000
     58     -55.2796      1.00000
     59     -55.2713      1.00000
     60     -55.2688      1.00000
     61     -55.2681      1.00000
     62     -55.2662      1.00000
     63     -55.2513      1.00000
     64     -55.2332      1.00000
     65     -55.2243      1.00000
     66     -55.2238      1.00000
     67     -55.2217      1.00000
     68     -55.2075      1.00000
     69     -55.1893      1.00000
     70     -51.9392      1.00000
     71     -50.3294      1.00000
     72     -50.0425      1.00000
     73     -18.8524      1.00000
     74     -18.5971      1.00000
     75     -18.5375      1.00000
     76     -18.4995      1.00000
     77     -18.4878      1.00000
     78     -18.4702      1.00000
     79     -18.4505      1.00000
     80     -18.4171      1.00000
     81     -18.3810      1.00000
     82     -18.3456      1.00000
     83     -18.3227      1.00000
     84     -18.3082      1.00000
     85     -18.2966      1.00000
     86     -18.2872      1.00000
     87     -18.2808      1.00000
     88     -18.2639      1.00000
     89     -18.2523      1.00000
     90     -18.2355      1.00000
     91     -18.2290      1.00000
     92     -18.2230      1.00000
     93     -18.2018      1.00000
     94     -18.1761      1.00000
     95     -18.1552      1.00000
     96     -18.1383      1.00000
     97     -18.0900      1.00000
     98     -18.0687      1.00000
     99     -18.0390      1.00000
    100     -16.2636      1.00000
    101     -16.2291      1.00000
    102     -16.2003      1.00000
    103     -16.1892      1.00000
    104     -16.1782      1.00000
    105     -16.1480      1.00000
    106     -16.1433      1.00000
    107     -16.1247      1.00000
    108     -16.1187      1.00000
    109     -16.0895      1.00000
    110     -16.0730      1.00000
    111     -16.0572      1.00000
    112     -16.0400      1.00000
    113     -16.0234      1.00000
    114     -16.0134      1.00000
    115     -16.0008      1.00000
    116     -15.9967      1.00000
    117     -15.9859      1.00000
    118     -15.9828      1.00000
    119     -15.9695      1.00000
    120     -15.9658      1.00000
    121     -15.9609      1.00000
    122     -15.9523      1.00000
    123     -15.9448      1.00000
    124     -15.9251      1.00000
    125     -15.9148      1.00000
    126     -15.9076      1.00000
    127     -15.8891      1.00000
    128     -15.8808      1.00000
    129     -15.8578      1.00000
    130     -15.8499      1.00000
    131     -15.8348      1.00000
    132     -15.8269      1.00000
    133     -15.8184      1.00000
    134     -15.8098      1.00000
    135     -15.7943      1.00000
    136     -15.7821      1.00000
    137     -15.7706      1.00000
    138     -15.7647      1.00000
    139     -15.7531      1.00000
    140     -15.7484      1.00000
    141     -15.7403      1.00000
    142     -15.7352      1.00000
    143     -15.7272      1.00000
    144     -15.7218      1.00000
    145     -15.7142      1.00000
    146     -15.7081      1.00000
    147     -15.6982      1.00000
    148     -15.6950      1.00000
    149     -15.6870      1.00000
    150     -15.6814      1.00000
    151     -15.6724      1.00000
    152     -15.6637      1.00000
    153     -15.6518      1.00000
    154     -15.6473      1.00000
    155     -15.6453      1.00000
    156     -15.6409      1.00000
    157     -15.6262      1.00000
    158     -15.6219      1.00000
    159     -15.6178      1.00000
    160     -15.6135      1.00000
    161     -15.6088      1.00000
    162     -15.6036      1.00000
    163     -15.5976      1.00000
    164     -15.5876      1.00000
    165     -15.5770      1.00000
    166     -15.5623      1.00000
    167     -15.5502      1.00000
    168     -15.5386      1.00000
    169     -15.5022      1.00000
    170     -15.3917      1.00000
    171     -15.2647      1.00000
    172      -7.0547      1.00000
    173      -7.0075      1.00000
    174      -6.9873      1.00000
    175      -6.9706      1.00000
    176      -6.9573      1.00000
    177      -6.9441      1.00000
    178      -6.9407      1.00000
    179      -6.9246      1.00000
    180      -6.9193      1.00000
    181      -6.8900      1.00000
    182      -6.8510      1.00000
    183      -6.6319      1.00000
    184      -6.3885      1.00000
    185      -6.3422      1.00000
    186      -6.3196      1.00000
    187      -6.2902      1.00000
    188      -6.2765      1.00000
    189      -6.2091      1.00000
    190      -6.1409      1.00000
    191      -6.1209      1.00000
    192      -6.1078      1.00000
    193      -6.1027      1.00000
    194      -6.0907      1.00000
    195      -6.0762      1.00000
    196      -6.0726      1.00000
    197      -6.0570      1.00000
    198      -6.0385      1.00000
    199      -6.0346      1.00000
    200      -6.0196      1.00000
    201      -5.9975      1.00000
    202      -5.9594      1.00000
    203      -5.9490      1.00000
    204      -5.9112      1.00000
    205      -5.8886      1.00000
    206      -5.8833      1.00000
    207      -5.8695      1.00000
    208      -5.8484      1.00000
    209      -5.8314      1.00000
    210      -5.8128      1.00000
    211      -5.8086      1.00000
    212      -5.7191      1.00000
    213      -5.6811      1.00000
    214      -5.6370      1.00000
    215      -5.5900      1.00000
    216      -5.5845      1.00000
    217      -5.5638      1.00000
    218      -5.5427      1.00000
    219      -5.5012      1.00000
    220      -5.4967      1.00000
    221      -5.4742      1.00000
    222      -5.4502      1.00000
    223      -5.4457      1.00000
    224      -5.3543      1.00000
    225      -5.3231      1.00000
    226      -5.3077      1.00000
    227      -5.3010      1.00000
    228      -5.2820      1.00000
    229      -5.2684      1.00000
    230      -5.2600      1.00000
    231      -5.2506      1.00000
    232      -5.2348      1.00000
    233      -5.2206      1.00000
    234      -5.2035      1.00000
    235      -5.1928      1.00000
    236      -5.1850      1.00000
    237      -5.1699      1.00000
    238      -5.1635      1.00000
    239      -5.1600      1.00000
    240      -5.1440      1.00000
    241      -5.1395      1.00000
    242      -5.1328      1.00000
    243      -5.1292      1.00000
    244      -5.1227      1.00000
    245      -5.1180      1.00000
    246      -5.1126      1.00000
    247      -5.1077      1.00000
    248      -5.0975      1.00000
    249      -5.0916      1.00000
    250      -5.0865      1.00000
    251      -5.0846      1.00000
    252      -5.0770      1.00000
    253      -5.0680      1.00000
    254      -5.0634      1.00000
    255      -5.0588      1.00000
    256      -5.0501      1.00000
    257      -5.0457      1.00000
    258      -5.0407      1.00000
    259      -5.0347      1.00000
    260      -5.0253      1.00000
    261      -5.0206      1.00000
    262      -5.0147      1.00000
    263      -5.0063      1.00000
    264      -5.0052      1.00000
    265      -4.9984      1.00000
    266      -4.9922      1.00000
    267      -4.9889      1.00000
    268      -4.9833      1.00000
    269      -4.9807      1.00000
    270      -4.9749      1.00000
    271      -4.9709      1.00000
    272      -4.9659      1.00000
    273      -4.9637      1.00000
    274      -4.9613      1.00000
    275      -4.9581      1.00000
    276      -4.9514      1.00000
    277      -4.9455      1.00000
    278      -4.9388      1.00000
    279      -4.9343      1.00000
    280      -4.9318      1.00000
    281      -4.9298      1.00000
    282      -4.9200      1.00000
    283      -4.9149      1.00000
    284      -4.9128      1.00000
    285      -4.8988      1.00000
    286      -4.8971      1.00000
    287      -4.8931      1.00000
    288      -4.8877      1.00000
    289      -4.8833      1.00000
    290      -4.8686      1.00000
    291      -4.8642      1.00000
    292      -4.8573      1.00000
    293      -4.8442      1.00000
    294      -4.8348      1.00000
    295      -4.7717      1.00000
    296      -4.7398      1.00000
    297      -4.7304      1.00000
    298      -4.7128      1.00000
    299      -4.6531      1.00000
    300      -4.5228      1.00000
    301      -4.4493      1.00000
    302      -4.4462      1.00000
    303      -4.3494      1.00000
    304      -4.3080      1.00000
    305      -4.2352      1.00000
    306      -4.2016      1.00000
    307      -4.1783      1.00000
    308      -4.1443      1.00000
    309      -4.1096      1.00000
    310      -3.9799      1.00000
    311      -3.9624      1.00000
    312      -3.8903      1.00000
    313      -3.8523      1.00000
    314      -3.8267      1.00000
    315      -3.7654      1.00000
    316      -3.6139      1.00000
    317      -3.5910      1.00000
    318      -3.5427      1.00000
    319      -3.4529      1.00000
    320      -3.3497      1.00000
    321      -3.2839      1.00000
    322      -3.2645      1.00000
    323      -3.2523      1.00000
    324      -3.2346      1.00000
    325      -3.2125      1.00000
    326      -3.1995      1.00000
    327      -3.1855      1.00000
    328      -3.1699      1.00000
    329      -3.1535      1.00000
    330      -3.1267      1.00000
    331      -3.1035      1.00000
    332      -3.0741      1.00000
    333      -3.0589      1.00000
    334      -3.0168      1.00000
    335      -3.0088      1.00000
    336      -2.9817      1.00000
    337      -2.9619      1.00000
    338      -2.9358      1.00000
    339      -2.9169      1.00000
    340      -2.9045      1.00000
    341      -2.8893      1.00000
    342      -2.8800      1.00000
    343      -2.8461      1.00000
    344      -2.8328      1.00000
    345      -2.8209      1.00000
    346      -2.8136      1.00000
    347      -2.8006      1.00000
    348      -2.7856      1.00000
    349      -2.7733      1.00000
    350      -2.7673      1.00000
    351      -2.7509      1.00000
    352      -2.7404      1.00000
    353      -2.7256      1.00000
    354      -2.7178      1.00000
    355      -2.7066      1.00000
    356      -2.7012      1.00000
    357      -2.6848      1.00000
    358      -2.6786      1.00000
    359      -2.6557      1.00000
    360      -2.6510      1.00000
    361      -2.6138      1.00000
    362      -2.5984      1.00000
    363      -2.5869      1.00000
    364      -2.5522      1.00000
    365      -2.5305      1.00000
    366      -2.5132      1.00000
    367      -2.5081      1.00000
    368      -2.4620      1.00000
    369      -2.4056      1.00000
    370      -2.3674      1.00000
    371      -2.2505      1.00000
    372      -2.2398      1.00000
    373      -2.2293      1.00000
    374      -2.2073      1.00000
    375      -2.1677      1.00000
    376      -2.1383      1.00000
    377      -2.0920      1.00000
    378      -2.0781      1.00000
    379      -2.0551      1.00000
    380      -1.9777      1.00000
    381      -1.9124      1.00000
    382      -1.7967      1.00000
    383      -1.5782      1.00000
    384      -1.5531      1.00000
    385      -1.5334      1.00000
    386      -1.4293      1.00000
    387      -1.3725      1.00000
    388      -1.3447      1.00000
    389      -1.3168      1.00000
    390      -1.2703      1.00000
    391      -1.2143      1.00000
    392      -1.1827      1.00000
    393      -1.1554      1.00000
    394      -1.1341      1.00000
    395      -1.1193      1.00000
    396      -1.0907      1.00000
    397      -1.0766      1.00000
    398      -1.0518      1.00000
    399      -1.0282      1.00000
    400      -1.0213      1.00000
    401      -0.9863      1.00000
    402      -0.9778      1.00000
    403      -0.9712      1.00000
    404      -0.9593      1.00000
    405      -0.9389      1.00000
    406      -0.9157      1.00000
    407      -0.8982      1.00000
    408      -0.8718      1.00000
    409      -0.8558      1.00000
    410      -0.8419      1.00000
    411      -0.8341      1.00000
    412      -0.7974      1.00000
    413      -0.7833      1.00000
    414      -0.7274      1.00000
    415      -0.6793      1.00000
    416      -0.6632      1.00000
    417      -0.6485      1.00000
    418      -0.6236      1.00000
    419      -0.5996      1.00000
    420      -0.5533      1.00000
    421      -0.5426      1.00000
    422      -0.5167      1.00000
    423      -0.4962      1.00000
    424      -0.4701      1.00000
    425      -0.4603      1.00000
    426      -0.4379      1.00000
    427      -0.4335      1.00000
    428      -0.4126      1.00000
    429      -0.3769      1.00000
    430      -0.3740      1.00000
    431      -0.3563      1.00000
    432      -0.3332      1.00000
    433      -0.3089      1.00000
    434      -0.2804      1.00000
    435      -0.2595      1.00000
    436      -0.2478      1.00000
    437      -0.2411      1.00000
    438      -0.2226      1.00000
    439      -0.2059      1.00000
    440      -0.1862      1.00000
    441      -0.1663      1.00000
    442      -0.1558      1.00000
    443      -0.1441      1.00000
    444      -0.1327      1.00000
    445      -0.1135      1.00000
    446      -0.0994      1.00000
    447      -0.0851      1.00000
    448      -0.0602      1.00000
    449      -0.0370      1.00000
    450      -0.0272      1.00000
    451      -0.0117      1.00000
    452      -0.0046      1.00000
    453       0.0144      1.00000
    454       0.0481      1.00000
    455       0.0586      1.00000
    456       0.0746      1.00000
    457       0.0794      1.00000
    458       0.0942      1.00000
    459       0.0977      1.00000
    460       0.1063      1.00000
    461       0.1295      1.00000
    462       0.1479      1.00000
    463       0.1549      1.00000
    464       0.1708      1.00000
    465       0.2055      1.00000
    466       0.2200      1.00000
    467       0.2410      1.00000
    468       0.2672      1.00000
    469       0.2747      1.00000
    470       0.2971      1.00000
    471       0.2998      1.00000
    472       0.3149      1.00000
    473       0.3285      1.00000
    474       0.3351      1.00000
    475       0.3423      1.00000
    476       0.3495      1.00000
    477       0.3680      1.00000
    478       0.3835      1.00000
    479       0.4108      1.00000
    480       0.4444      1.00000
    481       0.4720      1.00000
    482       0.4838      1.00000
    483       0.5213      1.00000
    484       0.5309      1.00000
    485       0.5564      1.00000
    486       0.5879      1.00000
    487       0.6014      1.00000
    488       0.6285      1.00000
    489       0.6407      1.00000
    490       0.6862      1.00000
    491       0.7098      1.00000
    492       0.7429      1.00000
    493       0.7579      1.00000
    494       0.8013      1.00000
    495       0.8154      1.00000
    496       0.8272      1.00000
    497       0.8509      1.00000
    498       0.8665      1.00000
    499       0.8776      1.00000
    500       0.8935      1.00000
    501       0.9161      1.00000
    502       0.9215      1.00000
    503       0.9367      1.00000
    504       0.9474      1.00000
    505       0.9860      1.00000
    506       0.9968      1.00000
    507       1.0074      1.00000
    508       1.0209      1.00000
    509       1.0376      1.00000
    510       1.0755      1.00000
    511       1.1011      1.00000
    512       1.1253      1.00000
    513       1.1350      1.00000
    514       1.1489      1.00000
    515       1.1701      1.00000
    516       1.1776      1.00000
    517       1.1963      1.00000
    518       1.2063      1.00000
    519       1.2298      1.00000
    520       1.2462      1.00000
    521       1.2786      1.00000
    522       1.2875      1.00000
    523       1.3066      1.00000
    524       1.3310      1.00000
    525       1.3421      1.00000
    526       1.3624      1.00000
    527       1.3796      1.00000
    528       1.3920      1.00000
    529       1.4003      1.00000
    530       1.4156      1.00000
    531       1.4298      1.00000
    532       1.4447      1.00000
    533       1.4739      1.00000
    534       1.4772      1.00000
    535       1.4955      1.00000
    536       1.5069      1.00000
    537       1.5142      1.00000
    538       1.5402      1.00000
    539       1.5523      1.00000
    540       1.5600      1.00000
    541       1.5627      1.00000
    542       1.5727      1.00000
    543       1.5861      1.00000
    544       1.6028      1.00000
    545       1.6163      1.00000
    546       1.6288      1.00000
    547       1.6401      1.00000
    548       1.6599      1.00000
    549       1.6678      1.00000
    550       1.6868      1.00000
    551       1.6963      1.00000
    552       1.7118      1.00000
    553       1.7149      1.00000
    554       1.7273      1.00000
    555       1.7330      1.00000
    556       1.7504      1.00000
    557       1.7657      1.00000
    558       1.7835      1.00000
    559       1.7916      1.00000
    560       1.8051      1.00000
    561       1.8133      1.00000
    562       1.8321      1.00000
    563       1.8443      1.00000
    564       1.8662      1.00000
    565       1.8852      1.00000
    566       1.8976      1.00000
    567       1.9160      1.00000
    568       1.9430      1.00000
    569       1.9719      1.00000
    570       1.9832      1.00000
    571       1.9868      1.00000
    572       2.0118      1.00000
    573       2.0236      1.00000
    574       2.0380      1.00000
    575       2.0505      1.00000
    576       2.0775      1.00000
    577       2.1019      1.00000
    578       2.1481      1.00000
    579       2.6240      1.00000
    580       7.7551      0.00000
    581       8.5190      0.00000
    582       8.5671      0.00000
    583       8.5816      0.00000
    584       9.2225      0.00000
    585       9.2532      0.00000
    586       9.6563      0.00000
    587       9.8621      0.00000
    588       9.9544      0.00000
    589       9.9888      0.00000
    590      10.0083      0.00000
    591      10.0285      0.00000
    592      10.0620      0.00000
    593      10.1343      0.00000
    594      10.1639      0.00000
    595      10.2236      0.00000
    596      10.3197      0.00000
    597      10.3544      0.00000
    598      10.4004      0.00000
    599      10.4361      0.00000
    600      10.4887      0.00000
    601      10.5275      0.00000
    602      10.5724      0.00000
    603      10.6026      0.00000
    604      10.6763      0.00000
    605      10.7005      0.00000
    606      10.7301      0.00000
    607      10.7409      0.00000
    608      10.7575      0.00000
    609      10.7737      0.00000
    610      10.8023      0.00000
    611      10.8122      0.00000
    612      10.8201      0.00000
    613      10.8269      0.00000
    614      10.8660      0.00000
    615      10.8849      0.00000
    616      10.8966      0.00000
    617      10.9173      0.00000
    618      10.9480      0.00000
    619      10.9728      0.00000
    620      10.9948      0.00000
    621      11.0179      0.00000
    622      11.0452      0.00000
    623      11.0752      0.00000
    624      11.0997      0.00000
    625      11.1222      0.00000
    626      11.1717      0.00000
    627      11.2367      0.00000
    628      11.2667      0.00000
    629      11.3150      0.00000
    630      11.3457      0.00000
    631      11.3622      0.00000
    632      11.3930      0.00000
    633      11.4629      0.00000
    634      11.4788      0.00000
    635      11.5182      0.00000
    636      11.5354      0.00000
    637      11.6026      0.00000
    638      11.6314      0.00000
    639      11.6476      0.00000
    640      11.6701      0.00000
    641      11.6867      0.00000
    642      11.7066      0.00000
    643      11.7351      0.00000
    644      11.7555      0.00000
    645      11.7689      0.00000
    646      11.7727      0.00000
    647      11.7863      0.00000
    648      11.8155      0.00000
    649      11.8298      0.00000
    650      11.8551      0.00000
    651      11.8640      0.00000
    652      11.8856      0.00000
    653      11.9183      0.00000
    654      11.9434      0.00000
    655      11.9655      0.00000
    656      12.0148      0.00000
    657      12.0369      0.00000
    658      12.0499      0.00000
    659      12.0573      0.00000
    660      12.0760      0.00000
    661      12.0998      0.00000
    662      12.1249      0.00000
    663      12.1367      0.00000
    664      12.2369      0.00000
    665      12.2508      0.00000
    666      12.2766      0.00000
    667      12.3284      0.00000
    668      12.3937      0.00000
    669      12.4554      0.00000
    670      12.4619      0.00000
    671      12.4844      0.00000
    672      12.5012      0.00000
    673      12.5321      0.00000
    674      12.5558      0.00000
    675      12.5795      0.00000
    676      12.5966      0.00000
    677      12.6518      0.00000
    678      12.6702      0.00000
    679      12.9288      0.00000
    680      12.9503      0.00000
    681      12.9720      0.00000
    682      12.9944      0.00000
    683      13.0156      0.00000
    684      13.0341      0.00000
    685      13.0448      0.00000
    686      13.0746      0.00000
    687      13.0963      0.00000
    688      13.1076      0.00000
    689      13.1300      0.00000
    690      13.1771      0.00000
    691      13.2174      0.00000
    692      13.2327      0.00000
    693      13.3009      0.00000
    694      13.3190      0.00000
    695      13.3582      0.00000
    696      13.4285      0.00000

 k-point     4 :       0.3333    0.0000    0.3333
  band No.  band energies     occupation 
      1     -55.6720      1.00000
      2     -55.6002      1.00000
      3     -55.5742      1.00000
      4     -55.5460      1.00000
      5     -55.5395      1.00000
      6     -55.5329      1.00000
      7     -55.5315      1.00000
      8     -55.5291      1.00000
      9     -55.5288      1.00000
     10     -55.5236      1.00000
     11     -55.5107      1.00000
     12     -55.5060      1.00000
     13     -55.4974      1.00000
     14     -55.4925      1.00000
     15     -55.4917      1.00000
     16     -55.4876      1.00000
     17     -55.4839      1.00000
     18     -55.4833      1.00000
     19     -55.4812      1.00000
     20     -55.4779      1.00000
     21     -55.4608      1.00000
     22     -55.4590      1.00000
     23     -55.4366      1.00000
     24     -55.4264      1.00000
     25     -55.4185      1.00000
     26     -55.4078      1.00000
     27     -55.4010      1.00000
     28     -55.3971      1.00000
     29     -55.3951      1.00000
     30     -55.3946      1.00000
     31     -55.3934      1.00000
     32     -55.3925      1.00000
     33     -55.3916      1.00000
     34     -55.3883      1.00000
     35     -55.3797      1.00000
     36     -55.3781      1.00000
     37     -55.3774      1.00000
     38     -55.3734      1.00000
     39     -55.3693      1.00000
     40     -55.3686      1.00000
     41     -55.3602      1.00000
     42     -55.3512      1.00000
     43     -55.3503      1.00000
     44     -55.3432      1.00000
     45     -55.3368      1.00000
     46     -55.3263      1.00000
     47     -55.3262      1.00000
     48     -55.3207      1.00000
     49     -55.3195      1.00000
     50     -55.3109      1.00000
     51     -55.3105      1.00000
     52     -55.3076      1.00000
     53     -55.3000      1.00000
     54     -55.2927      1.00000
     55     -55.2859      1.00000
     56     -55.2839      1.00000
     57     -55.2826      1.00000
     58     -55.2796      1.00000
     59     -55.2713      1.00000
     60     -55.2688      1.00000
     61     -55.2681      1.00000
     62     -55.2662      1.00000
     63     -55.2513      1.00000
     64     -55.2332      1.00000
     65     -55.2243      1.00000
     66     -55.2238      1.00000
     67     -55.2217      1.00000
     68     -55.2075      1.00000
     69     -55.1893      1.00000
     70     -51.9392      1.00000
     71     -50.3294      1.00000
     72     -50.0425      1.00000
     73     -18.8508      1.00000
     74     -18.5837      1.00000
     75     -18.5250      1.00000
     76     -18.4941      1.00000
     77     -18.4814      1.00000
     78     -18.4564      1.00000
     79     -18.4298      1.00000
     80     -18.4196      1.00000
     81     -18.3951      1.00000
     82     -18.3757      1.00000
     83     -18.3627      1.00000
     84     -18.3454      1.00000
     85     -18.3198      1.00000
     86     -18.2999      1.00000
     87     -18.2789      1.00000
     88     -18.2599      1.00000
     89     -18.2458      1.00000
     90     -18.2238      1.00000
     91     -18.2199      1.00000
     92     -18.1976      1.00000
     93     -18.1859      1.00000
     94     -18.1726      1.00000
     95     -18.1591      1.00000
     96     -18.1369      1.00000
     97     -18.0880      1.00000
     98     -18.0575      1.00000
     99     -18.0469      1.00000
    100     -16.2550      1.00000
    101     -16.2232      1.00000
    102     -16.1776      1.00000
    103     -16.1678      1.00000
    104     -16.1585      1.00000
    105     -16.1388      1.00000
    106     -16.1225      1.00000
    107     -16.1179      1.00000
    108     -16.1055      1.00000
    109     -16.0915      1.00000
    110     -16.0818      1.00000
    111     -16.0698      1.00000
    112     -16.0602      1.00000
    113     -16.0543      1.00000
    114     -16.0492      1.00000
    115     -16.0365      1.00000
    116     -16.0343      1.00000
    117     -16.0107      1.00000
    118     -16.0086      1.00000
    119     -15.9996      1.00000
    120     -15.9904      1.00000
    121     -15.9673      1.00000
    122     -15.9423      1.00000
    123     -15.9269      1.00000
    124     -15.9148      1.00000
    125     -15.8846      1.00000
    126     -15.8615      1.00000
    127     -15.8543      1.00000
    128     -15.8458      1.00000
    129     -15.8362      1.00000
    130     -15.8255      1.00000
    131     -15.8161      1.00000
    132     -15.8087      1.00000
    133     -15.8007      1.00000
    134     -15.7967      1.00000
    135     -15.7842      1.00000
    136     -15.7735      1.00000
    137     -15.7700      1.00000
    138     -15.7639      1.00000
    139     -15.7611      1.00000
    140     -15.7563      1.00000
    141     -15.7472      1.00000
    142     -15.7449      1.00000
    143     -15.7371      1.00000
    144     -15.7257      1.00000
    145     -15.7218      1.00000
    146     -15.7101      1.00000
    147     -15.7043      1.00000
    148     -15.6982      1.00000
    149     -15.6954      1.00000
    150     -15.6852      1.00000
    151     -15.6709      1.00000
    152     -15.6657      1.00000
    153     -15.6594      1.00000
    154     -15.6512      1.00000
    155     -15.6454      1.00000
    156     -15.6434      1.00000
    157     -15.6321      1.00000
    158     -15.6260      1.00000
    159     -15.6216      1.00000
    160     -15.6132      1.00000
    161     -15.6093      1.00000
    162     -15.6030      1.00000
    163     -15.6015      1.00000
    164     -15.5906      1.00000
    165     -15.5841      1.00000
    166     -15.5744      1.00000
    167     -15.5553      1.00000
    168     -15.5359      1.00000
    169     -15.5150      1.00000
    170     -15.3873      1.00000
    171     -15.2714      1.00000
    172      -6.9511      1.00000
    173      -6.9104      1.00000
    174      -6.8849      1.00000
    175      -6.8714      1.00000
    176      -6.8541      1.00000
    177      -6.8382      1.00000
    178      -6.8227      1.00000
    179      -6.8063      1.00000
    180      -6.7743      1.00000
    181      -6.7508      1.00000
    182      -6.7068      1.00000
    183      -6.6413      1.00000
    184      -6.5831      1.00000
    185      -6.5732      1.00000
    186      -6.5489      1.00000
    187      -6.5389      1.00000
    188      -6.5258      1.00000
    189      -6.4791      1.00000
    190      -6.4328      1.00000
    191      -6.4174      1.00000
    192      -6.3676      1.00000
    193      -6.3553      1.00000
    194      -6.2557      1.00000
    195      -6.1081      1.00000
    196      -6.0167      1.00000
    197      -6.0039      1.00000
    198      -5.9901      1.00000
    199      -5.9816      1.00000
    200      -5.9636      1.00000
    201      -5.9450      1.00000
    202      -5.9325      1.00000
    203      -5.9236      1.00000
    204      -5.8837      1.00000
    205      -5.8621      1.00000
    206      -5.8417      1.00000
    207      -5.8305      1.00000
    208      -5.8173      1.00000
    209      -5.8052      1.00000
    210      -5.7940      1.00000
    211      -5.7824      1.00000
    212      -5.7808      1.00000
    213      -5.7299      1.00000
    214      -5.6848      1.00000
    215      -5.6173      1.00000
    216      -5.5883      1.00000
    217      -5.5695      1.00000
    218      -5.5506      1.00000
    219      -5.5057      1.00000
    220      -5.4878      1.00000
    221      -5.4595      1.00000
    222      -5.3616      1.00000
    223      -5.3203      1.00000
    224      -5.2849      1.00000
    225      -5.2678      1.00000
    226      -5.2495      1.00000
    227      -5.2484      1.00000
    228      -5.2353      1.00000
    229      -5.2220      1.00000
    230      -5.2142      1.00000
    231      -5.2121      1.00000
    232      -5.1983      1.00000
    233      -5.1868      1.00000
    234      -5.1812      1.00000
    235      -5.1698      1.00000
    236      -5.1624      1.00000
    237      -5.1537      1.00000
    238      -5.1478      1.00000
    239      -5.1402      1.00000
    240      -5.1376      1.00000
    241      -5.1315      1.00000
    242      -5.1227      1.00000
    243      -5.1183      1.00000
    244      -5.1108      1.00000
    245      -5.1067      1.00000
    246      -5.0990      1.00000
    247      -5.0931      1.00000
    248      -5.0896      1.00000
    249      -5.0808      1.00000
    250      -5.0756      1.00000
    251      -5.0713      1.00000
    252      -5.0661      1.00000
    253      -5.0587      1.00000
    254      -5.0546      1.00000
    255      -5.0462      1.00000
    256      -5.0449      1.00000
    257      -5.0380      1.00000
    258      -5.0347      1.00000
    259      -5.0252      1.00000
    260      -5.0200      1.00000
    261      -5.0146      1.00000
    262      -5.0099      1.00000
    263      -5.0067      1.00000
    264      -4.9998      1.00000
    265      -4.9951      1.00000
    266      -4.9870      1.00000
    267      -4.9824      1.00000
    268      -4.9801      1.00000
    269      -4.9734      1.00000
    270      -4.9679      1.00000
    271      -4.9658      1.00000
    272      -4.9636      1.00000
    273      -4.9552      1.00000
    274      -4.9501      1.00000
    275      -4.9438      1.00000
    276      -4.9372      1.00000
    277      -4.9296      1.00000
    278      -4.9246      1.00000
    279      -4.9193      1.00000
    280      -4.9111      1.00000
    281      -4.9084      1.00000
    282      -4.8996      1.00000
    283      -4.8957      1.00000
    284      -4.8923      1.00000
    285      -4.8876      1.00000
    286      -4.8672      1.00000
    287      -4.8620      1.00000
    288      -4.8496      1.00000
    289      -4.8334      1.00000
    290      -4.8274      1.00000
    291      -4.8070      1.00000
    292      -4.7619      1.00000
    293      -4.7438      1.00000
    294      -4.7303      1.00000
    295      -4.6826      1.00000
    296      -4.6411      1.00000
    297      -4.6180      1.00000
    298      -4.5839      1.00000
    299      -4.5554      1.00000
    300      -4.5410      1.00000
    301      -4.5174      1.00000
    302      -4.4758      1.00000
    303      -4.3814      1.00000
    304      -4.3471      1.00000
    305      -4.3161      1.00000
    306      -4.2985      1.00000
    307      -4.2473      1.00000
    308      -4.2055      1.00000
    309      -4.1906      1.00000
    310      -4.0969      1.00000
    311      -4.0688      1.00000
    312      -4.0096      1.00000
    313      -3.8407      1.00000
    314      -3.8232      1.00000
    315      -3.7851      1.00000
    316      -3.7389      1.00000
    317      -3.6732      1.00000
    318      -3.6009      1.00000
    319      -3.5698      1.00000
    320      -3.5167      1.00000
    321      -3.4757      1.00000
    322      -3.4287      1.00000
    323      -3.2376      1.00000
    324      -3.2163      1.00000
    325      -3.1781      1.00000
    326      -3.1501      1.00000
    327      -3.1443      1.00000
    328      -3.1222      1.00000
    329      -3.1017      1.00000
    330      -3.0940      1.00000
    331      -3.0854      1.00000
    332      -3.0625      1.00000
    333      -3.0426      1.00000
    334      -3.0282      1.00000
    335      -2.9948      1.00000
    336      -2.9720      1.00000
    337      -2.9533      1.00000
    338      -2.9367      1.00000
    339      -2.9068      1.00000
    340      -2.8968      1.00000
    341      -2.8874      1.00000
    342      -2.8673      1.00000
    343      -2.8621      1.00000
    344      -2.8340      1.00000
    345      -2.8269      1.00000
    346      -2.8115      1.00000
    347      -2.8029      1.00000
    348      -2.7900      1.00000
    349      -2.7826      1.00000
    350      -2.7732      1.00000
    351      -2.7628      1.00000
    352      -2.7499      1.00000
    353      -2.7397      1.00000
    354      -2.7306      1.00000
    355      -2.7204      1.00000
    356      -2.7007      1.00000
    357      -2.6967      1.00000
    358      -2.6842      1.00000
    359      -2.6711      1.00000
    360      -2.6659      1.00000
    361      -2.6370      1.00000
    362      -2.6271      1.00000
    363      -2.6194      1.00000
    364      -2.6039      1.00000
    365      -2.5544      1.00000
    366      -2.5309      1.00000
    367      -2.4777      1.00000
    368      -2.4334      1.00000
    369      -2.3934      1.00000
    370      -2.3469      1.00000
    371      -2.2972      1.00000
    372      -2.2231      1.00000
    373      -2.2064      1.00000
    374      -2.1746      1.00000
    375      -2.1530      1.00000
    376      -2.1306      1.00000
    377      -2.1172      1.00000
    378      -2.1098      1.00000
    379      -2.0765      1.00000
    380      -2.0398      1.00000
    381      -1.9774      1.00000
    382      -1.9090      1.00000
    383      -1.6078      1.00000
    384      -1.5651      1.00000
    385      -1.4998      1.00000
    386      -1.4095      1.00000
    387      -1.3185      1.00000
    388      -1.3028      1.00000
    389      -1.2787      1.00000
    390      -1.2546      1.00000
    391      -1.2210      1.00000
    392      -1.2065      1.00000
    393      -1.1524      1.00000
    394      -1.1294      1.00000
    395      -1.0970      1.00000
    396      -1.0728      1.00000
    397      -1.0345      1.00000
    398      -1.0188      1.00000
    399      -0.9973      1.00000
    400      -0.9837      1.00000
    401      -0.9552      1.00000
    402      -0.9310      1.00000
    403      -0.9200      1.00000
    404      -0.8970      1.00000
    405      -0.8837      1.00000
    406      -0.8738      1.00000
    407      -0.8501      1.00000
    408      -0.8408      1.00000
    409      -0.8217      1.00000
    410      -0.8099      1.00000
    411      -0.7823      1.00000
    412      -0.7553      1.00000
    413      -0.7004      1.00000
    414      -0.6834      1.00000
    415      -0.6447      1.00000
    416      -0.6348      1.00000
    417      -0.6283      1.00000
    418      -0.5908      1.00000
    419      -0.5669      1.00000
    420      -0.5487      1.00000
    421      -0.5429      1.00000
    422      -0.5286      1.00000
    423      -0.5172      1.00000
    424      -0.5034      1.00000
    425      -0.4853      1.00000
    426      -0.4835      1.00000
    427      -0.4648      1.00000
    428      -0.4066      1.00000
    429      -0.3846      1.00000
    430      -0.3747      1.00000
    431      -0.3387      1.00000
    432      -0.3075      1.00000
    433      -0.2971      1.00000
    434      -0.2584      1.00000
    435      -0.2456      1.00000
    436      -0.2271      1.00000
    437      -0.1883      1.00000
    438      -0.1815      1.00000
    439      -0.1619      1.00000
    440      -0.1535      1.00000
    441      -0.1368      1.00000
    442      -0.1288      1.00000
    443      -0.1223      1.00000
    444      -0.1088      1.00000
    445      -0.1006      1.00000
    446      -0.0953      1.00000
    447      -0.0726      1.00000
    448      -0.0534      1.00000
    449      -0.0483      1.00000
    450      -0.0272      1.00000
    451      -0.0026      1.00000
    452       0.0030      1.00000
    453       0.0187      1.00000
    454       0.0341      1.00000
    455       0.0476      1.00000
    456       0.0594      1.00000
    457       0.0890      1.00000
    458       0.1112      1.00000
    459       0.1243      1.00000
    460       0.1425      1.00000
    461       0.1591      1.00000
    462       0.1722      1.00000
    463       0.1788      1.00000
    464       0.1942      1.00000
    465       0.2029      1.00000
    466       0.2182      1.00000
    467       0.2255      1.00000
    468       0.2416      1.00000
    469       0.2481      1.00000
    470       0.2598      1.00000
    471       0.2764      1.00000
    472       0.2835      1.00000
    473       0.2967      1.00000
    474       0.3120      1.00000
    475       0.3258      1.00000
    476       0.3358      1.00000
    477       0.3601      1.00000
    478       0.3708      1.00000
    479       0.3894      1.00000
    480       0.4108      1.00000
    481       0.4305      1.00000
    482       0.4623      1.00000
    483       0.4846      1.00000
    484       0.5533      1.00000
    485       0.5607      1.00000
    486       0.5808      1.00000
    487       0.5972      1.00000
    488       0.6188      1.00000
    489       0.6453      1.00000
    490       0.6666      1.00000
    491       0.6896      1.00000
    492       0.7032      1.00000
    493       0.7208      1.00000
    494       0.7357      1.00000
    495       0.7792      1.00000
    496       0.7958      1.00000
    497       0.8178      1.00000
    498       0.8275      1.00000
    499       0.8496      1.00000
    500       0.8558      1.00000
    501       0.8718      1.00000
    502       0.8842      1.00000
    503       0.9038      1.00000
    504       0.9314      1.00000
    505       0.9553      1.00000
    506       0.9872      1.00000
    507       0.9973      1.00000
    508       1.0226      1.00000
    509       1.0755      1.00000
    510       1.0877      1.00000
    511       1.0989      1.00000
    512       1.1114      1.00000
    513       1.1282      1.00000
    514       1.1413      1.00000
    515       1.1607      1.00000
    516       1.1704      1.00000
    517       1.1867      1.00000
    518       1.2036      1.00000
    519       1.2128      1.00000
    520       1.2305      1.00000
    521       1.2532      1.00000
    522       1.2711      1.00000
    523       1.2830      1.00000
    524       1.3063      1.00000
    525       1.3114      1.00000
    526       1.3327      1.00000
    527       1.3413      1.00000
    528       1.3751      1.00000
    529       1.3831      1.00000
    530       1.4005      1.00000
    531       1.4112      1.00000
    532       1.4281      1.00000
    533       1.4408      1.00000
    534       1.4596      1.00000
    535       1.4777      1.00000
    536       1.4875      1.00000
    537       1.5073      1.00000
    538       1.5207      1.00000
    539       1.5244      1.00000
    540       1.5387      1.00000
    541       1.5668      1.00000
    542       1.6012      1.00000
    543       1.6082      1.00000
    544       1.6386      1.00000
    545       1.6432      1.00000
    546       1.6579      1.00000
    547       1.6965      1.00000
    548       1.7074      1.00000
    549       1.7191      1.00000
    550       1.7255      1.00000
    551       1.7321      1.00000
    552       1.7380      1.00000
    553       1.7521      1.00000
    554       1.7637      1.00000
    555       1.7652      1.00000
    556       1.7822      1.00000
    557       1.7961      1.00000
    558       1.8070      1.00000
    559       1.8189      1.00000
    560       1.8306      1.00000
    561       1.8422      1.00000
    562       1.8633      1.00000
    563       1.8665      1.00000
    564       1.8712      1.00000
    565       1.8905      1.00000
    566       1.8954      1.00000
    567       1.9136      1.00000
    568       1.9157      1.00000
    569       1.9339      1.00000
    570       1.9478      1.00000
    571       1.9582      1.00000
    572       1.9791      1.00000
    573       2.0074      1.00000
    574       2.0155      1.00000
    575       2.0365      1.00000
    576       2.0567      1.00000
    577       2.0830      1.00000
    578       2.1338      1.00000
    579       2.6240      1.00000
    580       8.0816      0.00000
    581       8.7545      0.00000
    582       8.8121      0.00000
    583       8.8273      0.00000
    584       8.8954      0.00000
    585       9.3619      0.00000
    586       9.4189      0.00000
    587       9.4335      0.00000
    588       9.4635      0.00000
    589       9.4883      0.00000
    590       9.9134      0.00000
    591       9.9422      0.00000
    592      10.0506      0.00000
    593      10.1137      0.00000
    594      10.1281      0.00000
    595      10.1836      0.00000
    596      10.3202      0.00000
    597      10.3494      0.00000
    598      10.3695      0.00000
    599      10.3963      0.00000
    600      10.4206      0.00000
    601      10.4544      0.00000
    602      10.5531      0.00000
    603      10.5787      0.00000
    604      10.7110      0.00000
    605      10.7591      0.00000
    606      10.7912      0.00000
    607      10.8183      0.00000
    608      10.8763      0.00000
    609      10.9015      0.00000
    610      10.9169      0.00000
    611      10.9340      0.00000
    612      10.9444      0.00000
    613      10.9671      0.00000
    614      10.9989      0.00000
    615      11.0353      0.00000
    616      11.0509      0.00000
    617      11.0694      0.00000
    618      11.0765      0.00000
    619      11.0928      0.00000
    620      11.1174      0.00000
    621      11.1278      0.00000
    622      11.1463      0.00000
    623      11.1965      0.00000
    624      11.2619      0.00000
    625      11.2765      0.00000
    626      11.2957      0.00000
    627      11.3071      0.00000
    628      11.3386      0.00000
    629      11.3513      0.00000
    630      11.3654      0.00000
    631      11.3875      0.00000
    632      11.4048      0.00000
    633      11.4223      0.00000
    634      11.4489      0.00000
    635      11.4736      0.00000
    636      11.5073      0.00000
    637      11.5302      0.00000
    638      11.5518      0.00000
    639      11.6069      0.00000
    640      11.6197      0.00000
    641      11.6343      0.00000
    642      11.6729      0.00000
    643      11.7083      0.00000
    644      11.7319      0.00000
    645      11.7391      0.00000
    646      11.7630      0.00000
    647      11.7805      0.00000
    648      11.7913      0.00000
    649      11.8102      0.00000
    650      11.8478      0.00000
    651      11.8747      0.00000
    652      11.8860      0.00000
    653      11.8974      0.00000
    654      11.9248      0.00000
    655      11.9379      0.00000
    656      11.9466      0.00000
    657      11.9563      0.00000
    658      11.9821      0.00000
    659      12.0039      0.00000
    660      12.0244      0.00000
    661      12.0755      0.00000
    662      12.1152      0.00000
    663      12.1925      0.00000
    664      12.2098      0.00000
    665      12.2138      0.00000
    666      12.2575      0.00000
    667      12.3391      0.00000
    668      12.4097      0.00000
    669      12.4263      0.00000
    670      12.4703      0.00000
    671      12.4804      0.00000
    672      12.5174      0.00000
    673      12.5572      0.00000
    674      12.5901      0.00000
    675      12.6172      0.00000
    676      12.6378      0.00000
    677      12.6473      0.00000
    678      12.7390      0.00000
    679      12.7651      0.00000
    680      12.7881      0.00000
    681      12.8110      0.00000
    682      12.8295      0.00000
    683      12.8460      0.00000
    684      12.8865      0.00000
    685      12.9119      0.00000
    686      13.1142      0.00000
    687      13.1489      0.00000
    688      13.1987      0.00000
    689      13.2254      0.00000
    690      13.2319      0.00000
    691      13.2577      0.00000
    692      13.3035      0.00000
    693      13.3151      0.00000
    694      13.3635      0.00000
    695      13.3795      0.00000
    696      13.4046      0.00000

 k-point     5 :      -0.3333    0.0000    0.3333
  band No.  band energies     occupation 
      1     -55.6720      1.00000
      2     -55.6002      1.00000
      3     -55.5742      1.00000
      4     -55.5460      1.00000
      5     -55.5395      1.00000
      6     -55.5329      1.00000
      7     -55.5315      1.00000
      8     -55.5291      1.00000
      9     -55.5288      1.00000
     10     -55.5236      1.00000
     11     -55.5107      1.00000
     12     -55.5060      1.00000
     13     -55.4974      1.00000
     14     -55.4925      1.00000
     15     -55.4917      1.00000
     16     -55.4876      1.00000
     17     -55.4839      1.00000
     18     -55.4833      1.00000
     19     -55.4812      1.00000
     20     -55.4779      1.00000
     21     -55.4608      1.00000
     22     -55.4590      1.00000
     23     -55.4366      1.00000
     24     -55.4264      1.00000
     25     -55.4185      1.00000
     26     -55.4078      1.00000
     27     -55.4010      1.00000
     28     -55.3971      1.00000
     29     -55.3951      1.00000
     30     -55.3946      1.00000
     31     -55.3934      1.00000
     32     -55.3925      1.00000
     33     -55.3916      1.00000
     34     -55.3883      1.00000
     35     -55.3797      1.00000
     36     -55.3781      1.00000
     37     -55.3774      1.00000
     38     -55.3734      1.00000
     39     -55.3693      1.00000
     40     -55.3686      1.00000
     41     -55.3602      1.00000
     42     -55.3512      1.00000
     43     -55.3503      1.00000
     44     -55.3432      1.00000
     45     -55.3368      1.00000
     46     -55.3263      1.00000
     47     -55.3262      1.00000
     48     -55.3207      1.00000
     49     -55.3195      1.00000
     50     -55.3109      1.00000
     51     -55.3105      1.00000
     52     -55.3076      1.00000
     53     -55.3000      1.00000
     54     -55.2927      1.00000
     55     -55.2859      1.00000
     56     -55.2839      1.00000
     57     -55.2826      1.00000
     58     -55.2796      1.00000
     59     -55.2713      1.00000
     60     -55.2688      1.00000
     61     -55.2681      1.00000
     62     -55.2662      1.00000
     63     -55.2513      1.00000
     64     -55.2332      1.00000
     65     -55.2243      1.00000
     66     -55.2238      1.00000
     67     -55.2217      1.00000
     68     -55.2075      1.00000
     69     -55.1893      1.00000
     70     -51.9392      1.00000
     71     -50.3294      1.00000
     72     -50.0425      1.00000
     73     -18.8517      1.00000
     74     -18.5712      1.00000
     75     -18.5320      1.00000
     76     -18.4981      1.00000
     77     -18.4818      1.00000
     78     -18.4568      1.00000
     79     -18.4345      1.00000
     80     -18.4198      1.00000
     81     -18.3940      1.00000
     82     -18.3750      1.00000
     83     -18.3623      1.00000
     84     -18.3435      1.00000
     85     -18.3197      1.00000
     86     -18.3014      1.00000
     87     -18.2807      1.00000
     88     -18.2548      1.00000
     89     -18.2462      1.00000
     90     -18.2251      1.00000
     91     -18.2192      1.00000
     92     -18.1989      1.00000
     93     -18.1871      1.00000
     94     -18.1717      1.00000
     95     -18.1553      1.00000
     96     -18.1381      1.00000
     97     -18.0860      1.00000
     98     -18.0643      1.00000
     99     -18.0430      1.00000
    100     -16.2503      1.00000
    101     -16.2218      1.00000
    102     -16.1872      1.00000
    103     -16.1781      1.00000
    104     -16.1546      1.00000
    105     -16.1335      1.00000
    106     -16.1249      1.00000
    107     -16.1124      1.00000
    108     -16.1032      1.00000
    109     -16.0944      1.00000
    110     -16.0770      1.00000
    111     -16.0724      1.00000
    112     -16.0630      1.00000
    113     -16.0504      1.00000
    114     -16.0435      1.00000
    115     -16.0350      1.00000
    116     -16.0270      1.00000
    117     -16.0176      1.00000
    118     -16.0108      1.00000
    119     -16.0073      1.00000
    120     -15.9920      1.00000
    121     -15.9695      1.00000
    122     -15.9385      1.00000
    123     -15.9246      1.00000
    124     -15.9140      1.00000
    125     -15.8847      1.00000
    126     -15.8668      1.00000
    127     -15.8549      1.00000
    128     -15.8405      1.00000
    129     -15.8346      1.00000
    130     -15.8243      1.00000
    131     -15.8151      1.00000
    132     -15.8103      1.00000
    133     -15.8038      1.00000
    134     -15.8000      1.00000
    135     -15.7819      1.00000
    136     -15.7769      1.00000
    137     -15.7694      1.00000
    138     -15.7641      1.00000
    139     -15.7585      1.00000
    140     -15.7552      1.00000
    141     -15.7467      1.00000
    142     -15.7414      1.00000
    143     -15.7337      1.00000
    144     -15.7295      1.00000
    145     -15.7224      1.00000
    146     -15.7210      1.00000
    147     -15.7070      1.00000
    148     -15.6958      1.00000
    149     -15.6862      1.00000
    150     -15.6840      1.00000
    151     -15.6721      1.00000
    152     -15.6648      1.00000
    153     -15.6577      1.00000
    154     -15.6512      1.00000
    155     -15.6476      1.00000
    156     -15.6405      1.00000
    157     -15.6329      1.00000
    158     -15.6314      1.00000
    159     -15.6230      1.00000
    160     -15.6146      1.00000
    161     -15.6072      1.00000
    162     -15.6006      1.00000
    163     -15.5981      1.00000
    164     -15.5944      1.00000
    165     -15.5819      1.00000
    166     -15.5759      1.00000
    167     -15.5557      1.00000
    168     -15.5347      1.00000
    169     -15.5158      1.00000
    170     -15.3874      1.00000
    171     -15.2714      1.00000
    172      -6.9466      1.00000
    173      -6.9163      1.00000
    174      -6.8789      1.00000
    175      -6.8706      1.00000
    176      -6.8515      1.00000
    177      -6.8384      1.00000
    178      -6.8274      1.00000
    179      -6.7989      1.00000
    180      -6.7849      1.00000
    181      -6.7511      1.00000
    182      -6.7134      1.00000
    183      -6.6413      1.00000
    184      -6.5826      1.00000
    185      -6.5727      1.00000
    186      -6.5569      1.00000
    187      -6.5327      1.00000
    188      -6.5214      1.00000
    189      -6.4663      1.00000
    190      -6.4378      1.00000
    191      -6.4251      1.00000
    192      -6.3709      1.00000
    193      -6.3339      1.00000
    194      -6.2783      1.00000
    195      -6.0984      1.00000
    196      -6.0195      1.00000
    197      -6.0021      1.00000
    198      -5.9936      1.00000
    199      -5.9778      1.00000
    200      -5.9611      1.00000
    201      -5.9527      1.00000
    202      -5.9285      1.00000
    203      -5.9163      1.00000
    204      -5.8884      1.00000
    205      -5.8602      1.00000
    206      -5.8384      1.00000
    207      -5.8328      1.00000
    208      -5.8166      1.00000
    209      -5.8071      1.00000
    210      -5.7950      1.00000
    211      -5.7867      1.00000
    212      -5.7804      1.00000
    213      -5.7370      1.00000
    214      -5.6814      1.00000
    215      -5.6137      1.00000
    216      -5.5930      1.00000
    217      -5.5735      1.00000
    218      -5.5455      1.00000
    219      -5.5065      1.00000
    220      -5.4901      1.00000
    221      -5.4559      1.00000
    222      -5.3562      1.00000
    223      -5.3073      1.00000
    224      -5.2955      1.00000
    225      -5.2690      1.00000
    226      -5.2606      1.00000
    227      -5.2462      1.00000
    228      -5.2316      1.00000
    229      -5.2213      1.00000
    230      -5.2141      1.00000
    231      -5.2067      1.00000
    232      -5.1969      1.00000
    233      -5.1910      1.00000
    234      -5.1842      1.00000
    235      -5.1738      1.00000
    236      -5.1685      1.00000
    237      -5.1523      1.00000
    238      -5.1462      1.00000
    239      -5.1413      1.00000
    240      -5.1346      1.00000
    241      -5.1255      1.00000
    242      -5.1192      1.00000
    243      -5.1156      1.00000
    244      -5.1075      1.00000
    245      -5.1036      1.00000
    246      -5.0957      1.00000
    247      -5.0914      1.00000
    248      -5.0888      1.00000
    249      -5.0820      1.00000
    250      -5.0795      1.00000
    251      -5.0739      1.00000
    252      -5.0682      1.00000
    253      -5.0597      1.00000
    254      -5.0509      1.00000
    255      -5.0490      1.00000
    256      -5.0382      1.00000
    257      -5.0353      1.00000
    258      -5.0335      1.00000
    259      -5.0282      1.00000
    260      -5.0231      1.00000
    261      -5.0171      1.00000
    262      -5.0127      1.00000
    263      -5.0050      1.00000
    264      -4.9967      1.00000
    265      -4.9938      1.00000
    266      -4.9915      1.00000
    267      -4.9872      1.00000
    268      -4.9812      1.00000
    269      -4.9787      1.00000
    270      -4.9692      1.00000
    271      -4.9651      1.00000
    272      -4.9632      1.00000
    273      -4.9555      1.00000
    274      -4.9502      1.00000
    275      -4.9386      1.00000
    276      -4.9342      1.00000
    277      -4.9314      1.00000
    278      -4.9218      1.00000
    279      -4.9187      1.00000
    280      -4.9098      1.00000
    281      -4.9052      1.00000
    282      -4.9014      1.00000
    283      -4.8972      1.00000
    284      -4.8902      1.00000
    285      -4.8856      1.00000
    286      -4.8721      1.00000
    287      -4.8600      1.00000
    288      -4.8476      1.00000
    289      -4.8281      1.00000
    290      -4.8213      1.00000
    291      -4.8084      1.00000
    292      -4.7833      1.00000
    293      -4.7600      1.00000
    294      -4.7203      1.00000
    295      -4.7036      1.00000
    296      -4.6292      1.00000
    297      -4.6195      1.00000
    298      -4.5806      1.00000
    299      -4.5474      1.00000
    300      -4.5321      1.00000
    301      -4.5121      1.00000
    302      -4.4742      1.00000
    303      -4.3906      1.00000
    304      -4.3474      1.00000
    305      -4.3136      1.00000
    306      -4.2950      1.00000
    307      -4.2347      1.00000
    308      -4.2228      1.00000
    309      -4.1705      1.00000
    310      -4.1000      1.00000
    311      -4.0806      1.00000
    312      -4.0190      1.00000
    313      -3.8399      1.00000
    314      -3.8231      1.00000
    315      -3.7904      1.00000
    316      -3.7391      1.00000
    317      -3.6844      1.00000
    318      -3.5994      1.00000
    319      -3.5837      1.00000
    320      -3.5205      1.00000
    321      -3.4708      1.00000
    322      -3.3849      1.00000
    323      -3.2518      1.00000
    324      -3.2138      1.00000
    325      -3.2014      1.00000
    326      -3.1608      1.00000
    327      -3.1393      1.00000
    328      -3.1226      1.00000
    329      -3.1056      1.00000
    330      -3.0823      1.00000
    331      -3.0680      1.00000
    332      -3.0556      1.00000
    333      -3.0379      1.00000
    334      -3.0171      1.00000
    335      -3.0025      1.00000
    336      -2.9905      1.00000
    337      -2.9595      1.00000
    338      -2.9328      1.00000
    339      -2.9157      1.00000
    340      -2.8906      1.00000
    341      -2.8688      1.00000
    342      -2.8532      1.00000
    343      -2.8492      1.00000
    344      -2.8390      1.00000
    345      -2.8250      1.00000
    346      -2.8125      1.00000
    347      -2.8035      1.00000
    348      -2.7930      1.00000
    349      -2.7889      1.00000
    350      -2.7703      1.00000
    351      -2.7699      1.00000
    352      -2.7485      1.00000
    353      -2.7420      1.00000
    354      -2.7331      1.00000
    355      -2.7146      1.00000
    356      -2.7047      1.00000
    357      -2.6974      1.00000
    358      -2.6848      1.00000
    359      -2.6768      1.00000
    360      -2.6616      1.00000
    361      -2.6478      1.00000
    362      -2.6337      1.00000
    363      -2.6070      1.00000
    364      -2.5877      1.00000
    365      -2.5635      1.00000
    366      -2.5457      1.00000
    367      -2.4924      1.00000
    368      -2.4453      1.00000
    369      -2.3778      1.00000
    370      -2.3260      1.00000
    371      -2.2954      1.00000
    372      -2.2270      1.00000
    373      -2.2142      1.00000
    374      -2.1748      1.00000
    375      -2.1565      1.00000
    376      -2.1254      1.00000
    377      -2.1117      1.00000
    378      -2.0958      1.00000
    379      -2.0876      1.00000
    380      -2.0467      1.00000
    381      -1.9885      1.00000
    382      -1.9078      1.00000
    383      -1.6003      1.00000
    384      -1.5670      1.00000
    385      -1.4820      1.00000
    386      -1.4007      1.00000
    387      -1.3434      1.00000
    388      -1.3005      1.00000
    389      -1.2646      1.00000
    390      -1.2621      1.00000
    391      -1.2355      1.00000
    392      -1.1983      1.00000
    393      -1.1690      1.00000
    394      -1.1233      1.00000
    395      -1.1049      1.00000
    396      -1.0632      1.00000
    397      -1.0544      1.00000
    398      -1.0234      1.00000
    399      -1.0035      1.00000
    400      -0.9764      1.00000
    401      -0.9710      1.00000
    402      -0.9343      1.00000
    403      -0.9072      1.00000
    404      -0.8872      1.00000
    405      -0.8587      1.00000
    406      -0.8470      1.00000
    407      -0.8321      1.00000
    408      -0.8230      1.00000
    409      -0.8167      1.00000
    410      -0.8051      1.00000
    411      -0.7789      1.00000
    412      -0.7512      1.00000
    413      -0.7274      1.00000
    414      -0.6915      1.00000
    415      -0.6681      1.00000
    416      -0.6593      1.00000
    417      -0.6392      1.00000
    418      -0.6260      1.00000
    419      -0.5786      1.00000
    420      -0.5763      1.00000
    421      -0.5373      1.00000
    422      -0.5231      1.00000
    423      -0.5130      1.00000
    424      -0.4983      1.00000
    425      -0.4809      1.00000
    426      -0.4625      1.00000
    427      -0.4396      1.00000
    428      -0.4149      1.00000
    429      -0.3905      1.00000
    430      -0.3651      1.00000
    431      -0.3242      1.00000
    432      -0.2916      1.00000
    433      -0.2792      1.00000
    434      -0.2626      1.00000
    435      -0.2312      1.00000
    436      -0.2215      1.00000
    437      -0.2006      1.00000
    438      -0.1968      1.00000
    439      -0.1812      1.00000
    440      -0.1513      1.00000
    441      -0.1462      1.00000
    442      -0.1281      1.00000
    443      -0.1199      1.00000
    444      -0.1138      1.00000
    445      -0.1000      1.00000
    446      -0.0820      1.00000
    447      -0.0726      1.00000
    448      -0.0556      1.00000
    449      -0.0290      1.00000
    450      -0.0235      1.00000
    451      -0.0060      1.00000
    452      -0.0009      1.00000
    453       0.0201      1.00000
    454       0.0307      1.00000
    455       0.0454      1.00000
    456       0.0583      1.00000
    457       0.0819      1.00000
    458       0.1000      1.00000
    459       0.1262      1.00000
    460       0.1519      1.00000
    461       0.1613      1.00000
    462       0.1690      1.00000
    463       0.1845      1.00000
    464       0.1882      1.00000
    465       0.2022      1.00000
    466       0.2153      1.00000
    467       0.2223      1.00000
    468       0.2389      1.00000
    469       0.2500      1.00000
    470       0.2561      1.00000
    471       0.2681      1.00000
    472       0.2833      1.00000
    473       0.2939      1.00000
    474       0.3162      1.00000
    475       0.3261      1.00000
    476       0.3305      1.00000
    477       0.3506      1.00000
    478       0.3867      1.00000
    479       0.3967      1.00000
    480       0.4115      1.00000
    481       0.4306      1.00000
    482       0.4819      1.00000
    483       0.5179      1.00000
    484       0.5528      1.00000
    485       0.5644      1.00000
    486       0.5757      1.00000
    487       0.6037      1.00000
    488       0.6150      1.00000
    489       0.6351      1.00000
    490       0.6634      1.00000
    491       0.6754      1.00000
    492       0.6983      1.00000
    493       0.7110      1.00000
    494       0.7284      1.00000
    495       0.7561      1.00000
    496       0.8019      1.00000
    497       0.8213      1.00000
    498       0.8418      1.00000
    499       0.8556      1.00000
    500       0.8594      1.00000
    501       0.8687      1.00000
    502       0.9019      1.00000
    503       0.9094      1.00000
    504       0.9175      1.00000
    505       0.9394      1.00000
    506       0.9771      1.00000
    507       1.0067      1.00000
    508       1.0249      1.00000
    509       1.0750      1.00000
    510       1.0899      1.00000
    511       1.0939      1.00000
    512       1.1088      1.00000
    513       1.1246      1.00000
    514       1.1348      1.00000
    515       1.1695      1.00000
    516       1.1810      1.00000
    517       1.1895      1.00000
    518       1.2066      1.00000
    519       1.2219      1.00000
    520       1.2281      1.00000
    521       1.2402      1.00000
    522       1.2621      1.00000
    523       1.2842      1.00000
    524       1.2918      1.00000
    525       1.3122      1.00000
    526       1.3304      1.00000
    527       1.3458      1.00000
    528       1.3806      1.00000
    529       1.3928      1.00000
    530       1.4032      1.00000
    531       1.4226      1.00000
    532       1.4293      1.00000
    533       1.4403      1.00000
    534       1.4568      1.00000
    535       1.4732      1.00000
    536       1.4919      1.00000
    537       1.5027      1.00000
    538       1.5141      1.00000
    539       1.5355      1.00000
    540       1.5494      1.00000
    541       1.5595      1.00000
    542       1.5812      1.00000
    543       1.6135      1.00000
    544       1.6318      1.00000
    545       1.6505      1.00000
    546       1.6586      1.00000
    547       1.6805      1.00000
    548       1.7009      1.00000
    549       1.7142      1.00000
    550       1.7210      1.00000
    551       1.7470      1.00000
    552       1.7493      1.00000
    553       1.7570      1.00000
    554       1.7629      1.00000
    555       1.7734      1.00000
    556       1.7893      1.00000
    557       1.7950      1.00000
    558       1.8037      1.00000
    559       1.8162      1.00000
    560       1.8314      1.00000
    561       1.8427      1.00000
    562       1.8500      1.00000
    563       1.8664      1.00000
    564       1.8766      1.00000
    565       1.8881      1.00000
    566       1.9022      1.00000
    567       1.9082      1.00000
    568       1.9180      1.00000
    569       1.9293      1.00000
    570       1.9498      1.00000
    571       1.9589      1.00000
    572       1.9742      1.00000
    573       2.0054      1.00000
    574       2.0165      1.00000
    575       2.0329      1.00000
    576       2.0659      1.00000
    577       2.0826      1.00000
    578       2.1406      1.00000
    579       2.6205      1.00000
    580       8.0819      0.00000
    581       8.7564      0.00000
    582       8.8163      0.00000
    583       8.8289      0.00000
    584       8.8957      0.00000
    585       9.3503      0.00000
    586       9.4141      0.00000
    587       9.4401      0.00000
    588       9.4578      0.00000
    589       9.4863      0.00000
    590       9.9115      0.00000
    591       9.9277      0.00000
    592      10.0577      0.00000
    593      10.1121      0.00000
    594      10.1369      0.00000
    595      10.2142      0.00000
    596      10.3295      0.00000
    597      10.3509      0.00000
    598      10.3660      0.00000
    599      10.3861      0.00000
    600      10.4104      0.00000
    601      10.4513      0.00000
    602      10.5414      0.00000
    603      10.5802      0.00000
    604      10.7383      0.00000
    605      10.7647      0.00000
    606      10.7863      0.00000
    607      10.8031      0.00000
    608      10.8525      0.00000
    609      10.8824      0.00000
    610      10.9158      0.00000
    611      10.9291      0.00000
    612      10.9572      0.00000
    613      10.9707      0.00000
    614      11.0163      0.00000
    615      11.0265      0.00000
    616      11.0508      0.00000
    617      11.0624      0.00000
    618      11.0922      0.00000
    619      11.1058      0.00000
    620      11.1145      0.00000
    621      11.1501      0.00000
    622      11.1531      0.00000
    623      11.1938      0.00000
    624      11.2396      0.00000
    625      11.2720      0.00000
    626      11.2811      0.00000
    627      11.3098      0.00000
    628      11.3477      0.00000
    629      11.3601      0.00000
    630      11.3790      0.00000
    631      11.3946      0.00000
    632      11.4169      0.00000
    633      11.4379      0.00000
    634      11.4482      0.00000
    635      11.4715      0.00000
    636      11.4995      0.00000
    637      11.5359      0.00000
    638      11.5568      0.00000
    639      11.5804      0.00000
    640      11.6085      0.00000
    641      11.6295      0.00000
    642      11.6542      0.00000
    643      11.7134      0.00000
    644      11.7239      0.00000
    645      11.7358      0.00000
    646      11.7463      0.00000
    647      11.7724      0.00000
    648      11.7825      0.00000
    649      11.8117      0.00000
    650      11.8526      0.00000
    651      11.8638      0.00000
    652      11.8890      0.00000
    653      11.9076      0.00000
    654      11.9282      0.00000
    655      11.9485      0.00000
    656      11.9584      0.00000
    657      11.9748      0.00000
    658      11.9961      0.00000
    659      12.0077      0.00000
    660      12.0238      0.00000
    661      12.1079      0.00000
    662      12.1374      0.00000
    663      12.1631      0.00000
    664      12.1882      0.00000
    665      12.2241      0.00000
    666      12.2347      0.00000
    667      12.3119      0.00000
    668      12.3916      0.00000
    669      12.4335      0.00000
    670      12.4693      0.00000
    671      12.4848      0.00000
    672      12.5155      0.00000
    673      12.5463      0.00000
    674      12.5856      0.00000
    675      12.6235      0.00000
    676      12.6466      0.00000
    677      12.6720      0.00000
    678      12.7392      0.00000
    679      12.7454      0.00000
    680      12.7844      0.00000
    681      12.8129      0.00000
    682      12.8236      0.00000
    683      12.8462      0.00000
    684      12.8939      0.00000
    685      12.9247      0.00000
    686      13.1073      0.00000
    687      13.1735      0.00000
    688      13.2014      0.00000
    689      13.2091      0.00000
    690      13.2388      0.00000
    691      13.2504      0.00000
    692      13.3039      0.00000
    693      13.3251      0.00000
    694      13.3586      0.00000
    695      13.3777      0.00000
    696      13.4426      0.00000
 Fermi energy:         3.6575689026

 spin component 2

 k-point     1 :       0.0000    0.0000    0.0000
  band No.  band energies     occupation 
      1     -50.6304      1.00000
      2     -50.5514      1.00000
      3     -50.5298      1.00000
      4     -50.5065      1.00000
      5     -50.4976      1.00000
      6     -50.4942      1.00000
      7     -50.4936      1.00000
      8     -50.4842      1.00000
      9     -50.4807      1.00000
     10     -50.4803      1.00000
     11     -50.4750      1.00000
     12     -50.4692      1.00000
     13     -50.4620      1.00000
     14     -50.4603      1.00000
     15     -50.4548      1.00000
     16     -50.4492      1.00000
     17     -50.4464      1.00000
     18     -50.4457      1.00000
     19     -50.4434      1.00000
     20     -50.4357      1.00000
     21     -50.4339      1.00000
     22     -50.4294      1.00000
     23     -50.4194      1.00000
     24     -50.4111      1.00000
     25     -50.4027      1.00000
     26     -50.3947      1.00000
     27     -50.3921      1.00000
     28     -50.3904      1.00000
     29     -50.3884      1.00000
     30     -50.3861      1.00000
     31     -50.3816      1.00000
     32     -50.3780      1.00000
     33     -50.3768      1.00000
     34     -50.3730      1.00000
     35     -50.3688      1.00000
     36     -50.3671      1.00000
     37     -50.3664      1.00000
     38     -50.3581      1.00000
     39     -50.3544      1.00000
     40     -50.3540      1.00000
     41     -50.3474      1.00000
     42     -50.3440      1.00000
     43     -50.3434      1.00000
     44     -50.3396      1.00000
     45     -50.3335      1.00000
     46     -50.3270      1.00000
     47     -50.3268      1.00000
     48     -50.3204      1.00000
     49     -50.3154      1.00000
     50     -50.3117      1.00000
     51     -50.3103      1.00000
     52     -50.3064      1.00000
     53     -50.3037      1.00000
     54     -50.2915      1.00000
     55     -50.2859      1.00000
     56     -50.2828      1.00000
     57     -50.2812      1.00000
     58     -50.2732      1.00000
     59     -50.2712      1.00000
     60     -50.2682      1.00000
     61     -50.2676      1.00000
     62     -50.2667      1.00000
     63     -50.2621      1.00000
     64     -50.2590      1.00000
     65     -50.2290      1.00000
     66     -50.2246      1.00000
     67     -50.2172      1.00000
     68     -50.1984      1.00000
     69     -50.1789      1.00000
     70     -46.9627      1.00000
     71     -46.4321      1.00000
     72     -46.2217      1.00000
     73     -18.7829      1.00000
     74     -18.5179      1.00000
     75     -18.4827      1.00000
     76     -18.4401      1.00000
     77     -18.3299      1.00000
     78     -18.2970      1.00000
     79     -18.2418      1.00000
     80     -18.1979      1.00000
     81     -18.1851      1.00000
     82     -18.1455      1.00000
     83     -18.1356      1.00000
     84     -18.1268      1.00000
     85     -18.1127      1.00000
     86     -18.1079      1.00000
     87     -18.0872      1.00000
     88     -18.0800      1.00000
     89     -18.0617      1.00000
     90     -18.0367      1.00000
     91     -18.0339      1.00000
     92     -18.0092      1.00000
     93     -17.9931      1.00000
     94     -17.9794      1.00000
     95     -17.9516      1.00000
     96     -17.9333      1.00000
     97     -17.9129      1.00000
     98     -17.8934      1.00000
     99     -17.8499      1.00000
    100     -16.0635      1.00000
    101     -15.9982      1.00000
    102     -15.9763      1.00000
    103     -15.9581      1.00000
    104     -15.9429      1.00000
    105     -15.9221      1.00000
    106     -15.9052      1.00000
    107     -15.8923      1.00000
    108     -15.8619      1.00000
    109     -15.8501      1.00000
    110     -15.8206      1.00000
    111     -15.8106      1.00000
    112     -15.8085      1.00000
    113     -15.7995      1.00000
    114     -15.7954      1.00000
    115     -15.7758      1.00000
    116     -15.7690      1.00000
    117     -15.7626      1.00000
    118     -15.7498      1.00000
    119     -15.7404      1.00000
    120     -15.7175      1.00000
    121     -15.7132      1.00000
    122     -15.7028      1.00000
    123     -15.6856      1.00000
    124     -15.6610      1.00000
    125     -15.6514      1.00000
    126     -15.6445      1.00000
    127     -15.6278      1.00000
    128     -15.6190      1.00000
    129     -15.5964      1.00000
    130     -15.5907      1.00000
    131     -15.5746      1.00000
    132     -15.5657      1.00000
    133     -15.5489      1.00000
    134     -15.5382      1.00000
    135     -15.5343      1.00000
    136     -15.5183      1.00000
    137     -15.5130      1.00000
    138     -15.5077      1.00000
    139     -15.4993      1.00000
    140     -15.4891      1.00000
    141     -15.4841      1.00000
    142     -15.4722      1.00000
    143     -15.4699      1.00000
    144     -15.4656      1.00000
    145     -15.4549      1.00000
    146     -15.4479      1.00000
    147     -15.4432      1.00000
    148     -15.4293      1.00000
    149     -15.4226      1.00000
    150     -15.4209      1.00000
    151     -15.4187      1.00000
    152     -15.4106      1.00000
    153     -15.4022      1.00000
    154     -15.3960      1.00000
    155     -15.3875      1.00000
    156     -15.3868      1.00000
    157     -15.3752      1.00000
    158     -15.3583      1.00000
    159     -15.3547      1.00000
    160     -15.3508      1.00000
    161     -15.3409      1.00000
    162     -15.3380      1.00000
    163     -15.3222      1.00000
    164     -15.3148      1.00000
    165     -15.3085      1.00000
    166     -15.2995      1.00000
    167     -15.2955      1.00000
    168     -15.2661      1.00000
    169     -15.2508      1.00000
    170     -15.2242      1.00000
    171     -15.1153      1.00000
    172      -6.1883      1.00000
    173      -6.0000      1.00000
    174      -5.9748      1.00000
    175      -5.7291      1.00000
    176      -5.6780      1.00000
    177      -5.6370      1.00000
    178      -5.6217      1.00000
    179      -5.5843      1.00000
    180      -5.5584      1.00000
    181      -5.5387      1.00000
    182      -5.5273      1.00000
    183      -5.5013      1.00000
    184      -5.4654      1.00000
    185      -5.4488      1.00000
    186      -5.4366      1.00000
    187      -5.4284      1.00000
    188      -5.4029      1.00000
    189      -5.3957      1.00000
    190      -5.3727      1.00000
    191      -5.3457      1.00000
    192      -5.2975      1.00000
    193      -5.2102      1.00000
    194      -5.1687      1.00000
    195      -5.1241      1.00000
    196      -4.3423      1.00000
    197      -4.1244      1.00000
    198      -4.0910      1.00000
    199      -3.9904      1.00000
    200      -3.8628      1.00000
    201      -3.8431      1.00000
    202      -3.7336      1.00000
    203      -3.6998      1.00000
    204      -3.6953      1.00000
    205      -3.6722      1.00000
    206      -3.6324      1.00000
    207      -3.6168      1.00000
    208      -3.5872      1.00000
    209      -3.5823      1.00000
    210      -3.5690      1.00000
    211      -3.5578      1.00000
    212      -3.5342      1.00000
    213      -3.5128      1.00000
    214      -3.4843      1.00000
    215      -3.4039      1.00000
    216      -3.3840      1.00000
    217      -3.3642      1.00000
    218      -3.3483      1.00000
    219      -3.3317      1.00000
    220      -3.3177      1.00000
    221      -3.3135      1.00000
    222      -3.3002      1.00000
    223      -3.2910      1.00000
    224      -3.2803      1.00000
    225      -3.2749      1.00000
    226      -3.2604      1.00000
    227      -3.2587      1.00000
    228      -3.2357      1.00000
    229      -3.2332      1.00000
    230      -3.2257      1.00000
    231      -3.2141      1.00000
    232      -3.2014      1.00000
    233      -3.1962      1.00000
    234      -3.1902      1.00000
    235      -3.1734      1.00000
    236      -3.1694      1.00000
    237      -3.1370      1.00000
    238      -3.1139      1.00000
    239      -3.1025      1.00000
    240      -3.0975      1.00000
    241      -3.0762      1.00000
    242      -3.0582      1.00000
    243      -3.0338      1.00000
    244      -3.0040      1.00000
    245      -2.9616      1.00000
    246      -2.9491      1.00000
    247      -2.9416      1.00000
    248      -2.9241      1.00000
    249      -2.9056      1.00000
    250      -2.8965      1.00000
    251      -2.8333      1.00000
    252      -2.7972      1.00000
    253      -2.7880      1.00000
    254      -2.7646      1.00000
    255      -2.7479      1.00000
    256      -2.7378      1.00000
    257      -2.7117      1.00000
    258      -2.6674      1.00000
    259      -2.6550      1.00000
    260      -2.6299      1.00000
    261      -2.6012      1.00000
    262      -2.5391      1.00000
    263      -2.5272      1.00000
    264      -2.4925      1.00000
    265      -2.4747      1.00000
    266      -2.4402      1.00000
    267      -2.2908      1.00000
    268      -2.0339      1.00000
    269      -2.0096      1.00000
    270      -1.9882      1.00000
    271      -1.9706      1.00000
    272      -1.9304      1.00000
    273      -1.8138      1.00000
    274      -1.7918      1.00000
    275      -1.7651      1.00000
    276      -1.7415      1.00000
    277      -1.7141      1.00000
    278      -1.6982      1.00000
    279      -1.6843      1.00000
    280      -1.6689      1.00000
    281      -1.6577      1.00000
    282      -1.6487      1.00000
    283      -1.6408      1.00000
    284      -1.5958      1.00000
    285      -1.5310      1.00000
    286      -1.5006      1.00000
    287      -1.4351      1.00000
    288      -1.3055      1.00000
    289      -1.2594      1.00000
    290      -1.2515      1.00000
    291      -1.2179      1.00000
    292      -1.2007      1.00000
    293      -1.1500      1.00000
    294      -1.1258      1.00000
    295      -1.1020      1.00000
    296      -1.0883      1.00000
    297      -1.0377      1.00000
    298      -1.0305      1.00000
    299      -0.9839      1.00000
    300      -0.9668      1.00000
    301      -0.9507      1.00000
    302      -0.9221      1.00000
    303      -0.9095      1.00000
    304      -0.8983      1.00000
    305      -0.8936      1.00000
    306      -0.8777      1.00000
    307      -0.8649      1.00000
    308      -0.7939      1.00000
    309      -0.7880      1.00000
    310      -0.7718      1.00000
    311      -0.7678      1.00000
    312      -0.7558      1.00000
    313      -0.7380      1.00000
    314      -0.7309      1.00000
    315      -0.7121      1.00000
    316      -0.7018      1.00000
    317      -0.6817      1.00000
    318      -0.6676      1.00000
    319      -0.6529      1.00000
    320      -0.6306      1.00000
    321      -0.6144      1.00000
    322      -0.6005      1.00000
    323      -0.5901      1.00000
    324      -0.5820      1.00000
    325      -0.5790      1.00000
    326      -0.5600      1.00000
    327      -0.5521      1.00000
    328      -0.5287      1.00000
    329      -0.5081      1.00000
    330      -0.4847      1.00000
    331      -0.4472      1.00000
    332      -0.4255      1.00000
    333      -0.4089      1.00000
    334      -0.3828      1.00000
    335      -0.3674      1.00000
    336      -0.3212      1.00000
    337      -0.2310      1.00000
    338      -0.2103      1.00000
    339      -0.1716      1.00000
    340      -0.1355      1.00000
    341      -0.1108      1.00000
    342      -0.0919      1.00000
    343      -0.0842      1.00000
    344      -0.0711      1.00000
    345      -0.0669      1.00000
    346      -0.0334      1.00000
    347      -0.0208      1.00000
    348      -0.0110      1.00000
    349       0.0043      1.00000
    350       0.0138      1.00000
    351       0.0306      1.00000
    352       0.0323      1.00000
    353       0.0497      1.00000
    354       0.0596      1.00000
    355       0.1022      1.00000
    356       0.1098      1.00000
    357       0.1519      1.00000
    358       0.1670      1.00000
    359       0.1840      1.00000
    360       0.2001      1.00000
    361       0.2120      1.00000
    362       0.2335      1.00000
    363       0.2790      1.00000
    364       0.2962      1.00000
    365       0.3019      1.00000
    366       0.3248      1.00000
    367       0.3396      1.00000
    368       0.3431      1.00000
    369       0.3561      1.00000
    370       0.3703      1.00000
    371       0.3951      1.00000
    372       0.3956      1.00000
    373       0.4134      1.00000
    374       0.4273      1.00000
    375       0.4320      1.00000
    376       0.4411      1.00000
    377       0.4709      1.00000
    378       0.4878      1.00000
    379       0.5098      1.00000
    380       0.5162      1.00000
    381       0.5241      1.00000
    382       0.5380      1.00000
    383       0.5537      1.00000
    384       0.5649      1.00000
    385       0.5900      1.00000
    386       0.6134      1.00000
    387       0.6390      1.00000
    388       0.6606      1.00000
    389       0.6639      1.00000
    390       0.6758      1.00000
    391       0.6885      1.00000
    392       0.6965      1.00000
    393       0.7206      1.00000
    394       0.7384      1.00000
    395       0.7505      1.00000
    396       0.7617      1.00000
    397       0.7867      1.00000
    398       0.8067      1.00000
    399       0.8252      1.00000
    400       0.8390      1.00000
    401       0.8424      1.00000
    402       0.8575      1.00000
    403       0.8809      1.00000
    404       0.9029      1.00000
    405       0.9114      1.00000
    406       0.9251      1.00000
    407       0.9842      1.00000
    408       1.0386      1.00000
    409       1.0490      1.00000
    410       1.0601      1.00000
    411       1.0778      1.00000
    412       1.0950      1.00000
    413       1.1185      1.00000
    414       1.1842      1.00000
    415       1.2061      1.00000
    416       1.2153      1.00000
    417       1.2296      1.00000
    418       1.2401      1.00000
    419       1.2511      1.00000
    420       1.2824      1.00000
    421       1.2928      1.00000
    422       1.3069      1.00000
    423       1.3153      1.00000
    424       1.3287      1.00000
    425       1.3490      1.00000
    426       1.3529      1.00000
    427       1.3842      1.00000
    428       1.3907      1.00000
    429       1.4167      1.00000
    430       1.4495      1.00000
    431       1.4517      1.00000
    432       1.4674      1.00000
    433       1.4711      1.00000
    434       1.4879      1.00000
    435       1.4942      1.00000
    436       1.5149      1.00000
    437       1.5284      1.00000
    438       1.5427      1.00000
    439       1.5758      1.00000
    440       1.5872      1.00000
    441       1.6338      1.00000
    442       1.6483      1.00000
    443       1.6536      1.00000
    444       1.6691      1.00000
    445       1.6864      1.00000
    446       1.6988      1.00000
    447       1.7359      1.00000
    448       1.7776      1.00000
    449       1.7897      1.00000
    450       1.8076      1.00000
    451       1.8138      1.00000
    452       1.8203      1.00000
    453       1.8381      1.00000
    454       1.8530      1.00000
    455       1.8677      1.00000
    456       1.9310      1.00000
    457       2.0001      1.00000
    458       2.0342      1.00000
    459       2.1000      1.00000
    460       3.2530      1.00000
    461       4.3218      0.00000
    462       4.3590      0.00000
    463       4.3880      0.00000
    464       4.3952      0.00000
    465       4.4399      0.00000
    466       4.4463      0.00000
    467       4.4556      0.00000
    468       4.4667      0.00000
    469       4.4740      0.00000
    470       4.4824      0.00000
    471       4.4884      0.00000
    472       4.5003      0.00000
    473       4.5158      0.00000
    474       4.5258      0.00000
    475       4.5326      0.00000
    476       4.5413      0.00000
    477       4.5448      0.00000
    478       4.5538      0.00000
    479       4.5607      0.00000
    480       4.5688      0.00000
    481       4.5705      0.00000
    482       4.5761      0.00000
    483       4.5805      0.00000
    484       4.5893      0.00000
    485       4.5950      0.00000
    486       4.6003      0.00000
    487       4.6027      0.00000
    488       4.6043      0.00000
    489       4.6161      0.00000
    490       4.6200      0.00000
    491       4.6303      0.00000
    492       4.6309      0.00000
    493       4.6374      0.00000
    494       4.6406      0.00000
    495       4.6476      0.00000
    496       4.6534      0.00000
    497       4.6551      0.00000
    498       4.6608      0.00000
    499       4.6704      0.00000
    500       4.6745      0.00000
    501       4.6801      0.00000
    502       4.6862      0.00000
    503       4.6996      0.00000
    504       4.7030      0.00000
    505       4.7103      0.00000
    506       4.7123      0.00000
    507       4.7208      0.00000
    508       4.7278      0.00000
    509       4.7338      0.00000
    510       4.7459      0.00000
    511       4.7580      0.00000
    512       4.7716      0.00000
    513       4.7844      0.00000
    514       4.7955      0.00000
    515       4.7981      0.00000
    516       4.8001      0.00000
    517       4.8048      0.00000
    518       4.8098      0.00000
    519       4.8230      0.00000
    520       4.8298      0.00000
    521       4.8328      0.00000
    522       4.8441      0.00000
    523       4.8563      0.00000
    524       4.8783      0.00000
    525       4.8813      0.00000
    526       4.8924      0.00000
    527       4.9113      0.00000
    528       4.9202      0.00000
    529       4.9455      0.00000
    530       4.9503      0.00000
    531       4.9741      0.00000
    532       4.9846      0.00000
    533       4.9981      0.00000
    534       5.0043      0.00000
    535       5.0079      0.00000
    536       5.0426      0.00000
    537       5.0456      0.00000
    538       5.0561      0.00000
    539       5.0813      0.00000
    540       5.0914      0.00000
    541       5.1019      0.00000
    542       5.1204      0.00000
    543       5.1528      0.00000
    544       5.1821      0.00000
    545       5.2157      0.00000
    546       5.2525      0.00000
    547       5.2688      0.00000
    548       5.2791      0.00000
    549       5.2947      0.00000
    550       5.2959      0.00000
    551       5.3150      0.00000
    552       5.3310      0.00000
    553       5.3601      0.00000
    554       5.3807      0.00000
    555       5.3929      0.00000
    556       5.4361      0.00000
    557       5.4932      0.00000
    558       5.5227      0.00000
    559       5.5380      0.00000
    560       5.5491      0.00000
    561       5.5571      0.00000
    562       5.5909      0.00000
    563       5.6291      0.00000
    564       5.6557      0.00000
    565       5.6672      0.00000
    566       5.6817      0.00000
    567       5.6881      0.00000
    568       5.6990      0.00000
    569       5.7109      0.00000
    570       5.7238      0.00000
    571       5.7308      0.00000
    572       5.7382      0.00000
    573       5.7530      0.00000
    574       5.7772      0.00000
    575       5.8014      0.00000
    576       7.8096      0.00000
    577       7.9246      0.00000
    578       7.9799      0.00000
    579       8.2307      0.00000
    580       8.7218      0.00000
    581       8.7626      0.00000
    582       9.2456      0.00000
    583       9.9250      0.00000
    584       9.9613      0.00000
    585      10.1339      0.00000
    586      10.2052      0.00000
    587      10.3500      0.00000
    588      10.4059      0.00000
    589      10.4475      0.00000
    590      10.4542      0.00000
    591      10.4831      0.00000
    592      10.5173      0.00000
    593      10.5244      0.00000
    594      10.5442      0.00000
    595      10.5745      0.00000
    596      10.5980      0.00000
    597      10.7392      0.00000
    598      10.8071      0.00000
    599      10.8558      0.00000
    600      10.8999      0.00000
    601      10.9538      0.00000
    602      10.9644      0.00000
    603      10.9860      0.00000
    604      11.0250      0.00000
    605      11.0439      0.00000
    606      11.1465      0.00000
    607      11.2141      0.00000
    608      11.2293      0.00000
    609      11.2361      0.00000
    610      11.2782      0.00000
    611      11.3217      0.00000
    612      11.3352      0.00000
    613      11.3497      0.00000
    614      11.3881      0.00000
    615      11.4111      0.00000
    616      11.4290      0.00000
    617      11.4896      0.00000
    618      11.5108      0.00000
    619      11.5282      0.00000
    620      11.5497      0.00000
    621      11.5672      0.00000
    622      11.5969      0.00000
    623      11.6003      0.00000
    624      11.6201      0.00000
    625      11.6341      0.00000
    626      11.6518      0.00000
    627      11.6692      0.00000
    628      11.6871      0.00000
    629      11.6937      0.00000
    630      11.7124      0.00000
    631      11.7272      0.00000
    632      11.7458      0.00000
    633      11.7574      0.00000
    634      11.7934      0.00000
    635      11.8137      0.00000
    636      11.8337      0.00000
    637      11.8814      0.00000
    638      11.8848      0.00000
    639      11.9473      0.00000
    640      11.9784      0.00000
    641      11.9909      0.00000
    642      11.9983      0.00000
    643      12.0044      0.00000
    644      12.0212      0.00000
    645      12.0621      0.00000
    646      12.1009      0.00000
    647      12.1174      0.00000
    648      12.1424      0.00000
    649      12.1672      0.00000
    650      12.2075      0.00000
    651      12.2297      0.00000
    652      12.2540      0.00000
    653      12.2701      0.00000
    654      12.3102      0.00000
    655      12.3699      0.00000
    656      12.3781      0.00000
    657      12.3895      0.00000
    658      12.4255      0.00000
    659      12.4540      0.00000
    660      12.4711      0.00000
    661      12.4857      0.00000
    662      12.4990      0.00000
    663      12.5103      0.00000
    664      12.5223      0.00000
    665      12.5362      0.00000
    666      12.5709      0.00000
    667      12.7090      0.00000
    668      12.7420      0.00000
    669      12.7676      0.00000
    670      12.7871      0.00000
    671      12.8058      0.00000
    672      12.8197      0.00000
    673      12.8498      0.00000
    674      12.8946      0.00000
    675      12.9015      0.00000
    676      12.9593      0.00000
    677      12.9886      0.00000
    678      13.1774      0.00000
    679      13.2062      0.00000
    680      13.2846      0.00000
    681      13.2992      0.00000
    682      13.3250      0.00000
    683      13.3436      0.00000
    684      13.3971      0.00000
    685      13.4020      0.00000
    686      13.4182      0.00000
    687      13.4614      0.00000
    688      13.4958      0.00000
    689      13.5282      0.00000
    690      13.5616      0.00000
    691      13.6107      0.00000
    692      13.6648      0.00000
    693      13.7532      0.00000
    694      13.7666      0.00000
    695      13.8333      0.00000
    696      13.8884      0.00000

 k-point     2 :       0.3333    0.0000    0.0000
  band No.  band energies     occupation 
      1     -50.6304      1.00000
      2     -50.5514      1.00000
      3     -50.5298      1.00000
      4     -50.5065      1.00000
      5     -50.4976      1.00000
      6     -50.4942      1.00000
      7     -50.4936      1.00000
      8     -50.4842      1.00000
      9     -50.4807      1.00000
     10     -50.4803      1.00000
     11     -50.4750      1.00000
     12     -50.4692      1.00000
     13     -50.4620      1.00000
     14     -50.4603      1.00000
     15     -50.4548      1.00000
     16     -50.4492      1.00000
     17     -50.4464      1.00000
     18     -50.4457      1.00000
     19     -50.4434      1.00000
     20     -50.4357      1.00000
     21     -50.4339      1.00000
     22     -50.4294      1.00000
     23     -50.4194      1.00000
     24     -50.4111      1.00000
     25     -50.4027      1.00000
     26     -50.3947      1.00000
     27     -50.3921      1.00000
     28     -50.3904      1.00000
     29     -50.3884      1.00000
     30     -50.3861      1.00000
     31     -50.3816      1.00000
     32     -50.3780      1.00000
     33     -50.3768      1.00000
     34     -50.3730      1.00000
     35     -50.3688      1.00000
     36     -50.3671      1.00000
     37     -50.3664      1.00000
     38     -50.3581      1.00000
     39     -50.3544      1.00000
     40     -50.3540      1.00000
     41     -50.3474      1.00000
     42     -50.3440      1.00000
     43     -50.3434      1.00000
     44     -50.3396      1.00000
     45     -50.3335      1.00000
     46     -50.3270      1.00000
     47     -50.3268      1.00000
     48     -50.3204      1.00000
     49     -50.3154      1.00000
     50     -50.3117      1.00000
     51     -50.3103      1.00000
     52     -50.3064      1.00000
     53     -50.3037      1.00000
     54     -50.2915      1.00000
     55     -50.2859      1.00000
     56     -50.2828      1.00000
     57     -50.2812      1.00000
     58     -50.2732      1.00000
     59     -50.2712      1.00000
     60     -50.2682      1.00000
     61     -50.2676      1.00000
     62     -50.2667      1.00000
     63     -50.2621      1.00000
     64     -50.2590      1.00000
     65     -50.2290      1.00000
     66     -50.2246      1.00000
     67     -50.2172      1.00000
     68     -50.1984      1.00000
     69     -50.1789      1.00000
     70     -46.9627      1.00000
     71     -46.4321      1.00000
     72     -46.2217      1.00000
     73     -18.7832      1.00000
     74     -18.5175      1.00000
     75     -18.4821      1.00000
     76     -18.4057      1.00000
     77     -18.3085      1.00000
     78     -18.2976      1.00000
     79     -18.2547      1.00000
     80     -18.2194      1.00000
     81     -18.1966      1.00000
     82     -18.1852      1.00000
     83     -18.1689      1.00000
     84     -18.1443      1.00000
     85     -18.1156      1.00000
     86     -18.1037      1.00000
     87     -18.0850      1.00000
     88     -18.0660      1.00000
     89     -18.0419      1.00000
     90     -18.0297      1.00000
     91     -18.0119      1.00000
     92     -18.0028      1.00000
     93     -17.9888      1.00000
     94     -17.9762      1.00000
     95     -17.9523      1.00000
     96     -17.9346      1.00000
     97     -17.9121      1.00000
     98     -17.8942      1.00000
     99     -17.8532      1.00000
    100     -16.0554      1.00000
    101     -15.9839      1.00000
    102     -15.9632      1.00000
    103     -15.9395      1.00000
    104     -15.9209      1.00000
    105     -15.9104      1.00000
    106     -15.8979      1.00000
    107     -15.8748      1.00000
    108     -15.8618      1.00000
    109     -15.8487      1.00000
    110     -15.8381      1.00000
    111     -15.8316      1.00000
    112     -15.8251      1.00000
    113     -15.8097      1.00000
    114     -15.7933      1.00000
    115     -15.7845      1.00000
    116     -15.7789      1.00000
    117     -15.7686      1.00000
    118     -15.7656      1.00000
    119     -15.7405      1.00000
    120     -15.7208      1.00000
    121     -15.7116      1.00000
    122     -15.6973      1.00000
    123     -15.6910      1.00000
    124     -15.6660      1.00000
    125     -15.6532      1.00000
    126     -15.6291      1.00000
    127     -15.6095      1.00000
    128     -15.5968      1.00000
    129     -15.5904      1.00000
    130     -15.5812      1.00000
    131     -15.5730      1.00000
    132     -15.5543      1.00000
    133     -15.5473      1.00000
    134     -15.5419      1.00000
    135     -15.5405      1.00000
    136     -15.5294      1.00000
    137     -15.5240      1.00000
    138     -15.5143      1.00000
    139     -15.5127      1.00000
    140     -15.5031      1.00000
    141     -15.4974      1.00000
    142     -15.4903      1.00000
    143     -15.4829      1.00000
    144     -15.4790      1.00000
    145     -15.4753      1.00000
    146     -15.4567      1.00000
    147     -15.4356      1.00000
    148     -15.4295      1.00000
    149     -15.4233      1.00000
    150     -15.4197      1.00000
    151     -15.4108      1.00000
    152     -15.4024      1.00000
    153     -15.3950      1.00000
    154     -15.3912      1.00000
    155     -15.3835      1.00000
    156     -15.3742      1.00000
    157     -15.3665      1.00000
    158     -15.3563      1.00000
    159     -15.3494      1.00000
    160     -15.3441      1.00000
    161     -15.3387      1.00000
    162     -15.3305      1.00000
    163     -15.3252      1.00000
    164     -15.3215      1.00000
    165     -15.3131      1.00000
    166     -15.3040      1.00000
    167     -15.2871      1.00000
    168     -15.2662      1.00000
    169     -15.2551      1.00000
    170     -15.2263      1.00000
    171     -15.1156      1.00000
    172      -6.0723      1.00000
    173      -5.8850      1.00000
    174      -5.8596      1.00000
    175      -5.7755      1.00000
    176      -5.7188      1.00000
    177      -5.6685      1.00000
    178      -5.6027      1.00000
    179      -5.5904      1.00000
    180      -5.5770      1.00000
    181      -5.5664      1.00000
    182      -5.5375      1.00000
    183      -5.5277      1.00000
    184      -5.5071      1.00000
    185      -5.4692      1.00000
    186      -5.4479      1.00000
    187      -5.4396      1.00000
    188      -5.4155      1.00000
    189      -5.4052      1.00000
    190      -5.3951      1.00000
    191      -5.3661      1.00000
    192      -5.2883      1.00000
    193      -5.2800      1.00000
    194      -5.2212      1.00000
    195      -5.1371      1.00000
    196      -4.2811      1.00000
    197      -4.0993      1.00000
    198      -4.0447      1.00000
    199      -4.0249      1.00000
    200      -3.9072      1.00000
    201      -3.8878      1.00000
    202      -3.6953      1.00000
    203      -3.6737      1.00000
    204      -3.6603      1.00000
    205      -3.6312      1.00000
    206      -3.5994      1.00000
    207      -3.5839      1.00000
    208      -3.5656      1.00000
    209      -3.5528      1.00000
    210      -3.5416      1.00000
    211      -3.5253      1.00000
    212      -3.5004      1.00000
    213      -3.4819      1.00000
    214      -3.4678      1.00000
    215      -3.4561      1.00000
    216      -3.4510      1.00000
    217      -3.4196      1.00000
    218      -3.4077      1.00000
    219      -3.3879      1.00000
    220      -3.3692      1.00000
    221      -3.3620      1.00000
    222      -3.3482      1.00000
    223      -3.3193      1.00000
    224      -3.2873      1.00000
    225      -3.2741      1.00000
    226      -3.2593      1.00000
    227      -3.2459      1.00000
    228      -3.2369      1.00000
    229      -3.2283      1.00000
    230      -3.2196      1.00000
    231      -3.2081      1.00000
    232      -3.2040      1.00000
    233      -3.1874      1.00000
    234      -3.1733      1.00000
    235      -3.1474      1.00000
    236      -3.1243      1.00000
    237      -3.1001      1.00000
    238      -3.0813      1.00000
    239      -3.0562      1.00000
    240      -3.0436      1.00000
    241      -3.0329      1.00000
    242      -3.0239      1.00000
    243      -3.0054      1.00000
    244      -2.9832      1.00000
    245      -2.9594      1.00000
    246      -2.9525      1.00000
    247      -2.9388      1.00000
    248      -2.9167      1.00000
    249      -2.9076      1.00000
    250      -2.8980      1.00000
    251      -2.8638      1.00000
    252      -2.8550      1.00000
    253      -2.7937      1.00000
    254      -2.7784      1.00000
    255      -2.7544      1.00000
    256      -2.7422      1.00000
    257      -2.7014      1.00000
    258      -2.6923      1.00000
    259      -2.6897      1.00000
    260      -2.6837      1.00000
    261      -2.6531      1.00000
    262      -2.6487      1.00000
    263      -2.6333      1.00000
    264      -2.6209      1.00000
    265      -2.5592      1.00000
    266      -2.4472      1.00000
    267      -2.3793      1.00000
    268      -1.9840      1.00000
    269      -1.9403      1.00000
    270      -1.9134      1.00000
    271      -1.9085      1.00000
    272      -1.8709      1.00000
    273      -1.8014      1.00000
    274      -1.7725      1.00000
    275      -1.7606      1.00000
    276      -1.7512      1.00000
    277      -1.7339      1.00000
    278      -1.7191      1.00000
    279      -1.7013      1.00000
    280      -1.6861      1.00000
    281      -1.6789      1.00000
    282      -1.6463      1.00000
    283      -1.6253      1.00000
    284      -1.5723      1.00000
    285      -1.5011      1.00000
    286      -1.4361      1.00000
    287      -1.3954      1.00000
    288      -1.2756      1.00000
    289      -1.2409      1.00000
    290      -1.1956      1.00000
    291      -1.1768      1.00000
    292      -1.1525      1.00000
    293      -1.1215      1.00000
    294      -1.0728      1.00000
    295      -1.0510      1.00000
    296      -1.0341      1.00000
    297      -0.9816      1.00000
    298      -0.9738      1.00000
    299      -0.9521      1.00000
    300      -0.9369      1.00000
    301      -0.9172      1.00000
    302      -0.9059      1.00000
    303      -0.8951      1.00000
    304      -0.8816      1.00000
    305      -0.8671      1.00000
    306      -0.8582      1.00000
    307      -0.8328      1.00000
    308      -0.8212      1.00000
    309      -0.8092      1.00000
    310      -0.7820      1.00000
    311      -0.7643      1.00000
    312      -0.7579      1.00000
    313      -0.7410      1.00000
    314      -0.7162      1.00000
    315      -0.7043      1.00000
    316      -0.6614      1.00000
    317      -0.6328      1.00000
    318      -0.6281      1.00000
    319      -0.6185      1.00000
    320      -0.6026      1.00000
    321      -0.5937      1.00000
    322      -0.5804      1.00000
    323      -0.5675      1.00000
    324      -0.5537      1.00000
    325      -0.5404      1.00000
    326      -0.5099      1.00000
    327      -0.5066      1.00000
    328      -0.4758      1.00000
    329      -0.4666      1.00000
    330      -0.4487      1.00000
    331      -0.4432      1.00000
    332      -0.4270      1.00000
    333      -0.4003      1.00000
    334      -0.3788      1.00000
    335      -0.3498      1.00000
    336      -0.3230      1.00000
    337      -0.2587      1.00000
    338      -0.1972      1.00000
    339      -0.1779      1.00000
    340      -0.1696      1.00000
    341      -0.1598      1.00000
    342      -0.1510      1.00000
    343      -0.1368      1.00000
    344      -0.1328      1.00000
    345      -0.1217      1.00000
    346      -0.1039      1.00000
    347      -0.0939      1.00000
    348      -0.0888      1.00000
    349      -0.0718      1.00000
    350      -0.0608      1.00000
    351      -0.0434      1.00000
    352      -0.0023      1.00000
    353       0.0122      1.00000
    354       0.0332      1.00000
    355       0.0504      1.00000
    356       0.0573      1.00000
    357       0.0798      1.00000
    358       0.0923      1.00000
    359       0.1039      1.00000
    360       0.1055      1.00000
    361       0.1275      1.00000
    362       0.1531      1.00000
    363       0.1762      1.00000
    364       0.2075      1.00000
    365       0.2326      1.00000
    366       0.2933      1.00000
    367       0.3072      1.00000
    368       0.3285      1.00000
    369       0.3303      1.00000
    370       0.3508      1.00000
    371       0.3539      1.00000
    372       0.3632      1.00000
    373       0.3727      1.00000
    374       0.3870      1.00000
    375       0.4070      1.00000
    376       0.4153      1.00000
    377       0.4320      1.00000
    378       0.4398      1.00000
    379       0.4559      1.00000
    380       0.4739      1.00000
    381       0.4907      1.00000
    382       0.5243      1.00000
    383       0.5497      1.00000
    384       0.5540      1.00000
    385       0.5778      1.00000
    386       0.5995      1.00000
    387       0.6122      1.00000
    388       0.6943      1.00000
    389       0.7267      1.00000
    390       0.7716      1.00000
    391       0.7858      1.00000
    392       0.8028      1.00000
    393       0.8205      1.00000
    394       0.8265      1.00000
    395       0.8419      1.00000
    396       0.8472      1.00000
    397       0.8636      1.00000
    398       0.8699      1.00000
    399       0.8831      1.00000
    400       0.9222      1.00000
    401       0.9430      1.00000
    402       0.9743      1.00000
    403       0.9892      1.00000
    404       0.9997      1.00000
    405       1.0121      1.00000
    406       1.0213      1.00000
    407       1.0349      1.00000
    408       1.0440      1.00000
    409       1.0691      1.00000
    410       1.0880      1.00000
    411       1.1026      1.00000
    412       1.1435      1.00000
    413       1.1554      1.00000
    414       1.1682      1.00000
    415       1.1818      1.00000
    416       1.2062      1.00000
    417       1.2119      1.00000
    418       1.2254      1.00000
    419       1.2331      1.00000
    420       1.2462      1.00000
    421       1.2546      1.00000
    422       1.2744      1.00000
    423       1.3055      1.00000
    424       1.3136      1.00000
    425       1.3297      1.00000
    426       1.3529      1.00000
    427       1.3747      1.00000
    428       1.3985      1.00000
    429       1.4072      1.00000
    430       1.4178      1.00000
    431       1.4305      1.00000
    432       1.4514      1.00000
    433       1.4543      1.00000
    434       1.4670      1.00000
    435       1.4766      1.00000
    436       1.5018      1.00000
    437       1.5186      1.00000
    438       1.5456      1.00000
    439       1.5599      1.00000
    440       1.5839      1.00000
    441       1.6165      1.00000
    442       1.6370      1.00000
    443       1.6459      1.00000
    444       1.6564      1.00000
    445       1.6658      1.00000
    446       1.6737      1.00000
    447       1.6848      1.00000
    448       1.6929      1.00000
    449       1.7338      1.00000
    450       1.7916      1.00000
    451       1.8075      1.00000
    452       1.8177      1.00000
    453       1.8282      1.00000
    454       1.8599      1.00000
    455       1.8832      1.00000
    456       1.9437      1.00000
    457       2.0213      1.00000
    458       2.0342      1.00000
    459       2.1115      1.00000
    460       3.2509      1.00000
    461       4.3292      0.00000
    462       4.3718      0.00000
    463       4.3881      0.00000
    464       4.3947      0.00000
    465       4.4377      0.00000
    466       4.4462      0.00000
    467       4.4512      0.00000
    468       4.4715      0.00000
    469       4.4772      0.00000
    470       4.4858      0.00000
    471       4.4892      0.00000
    472       4.4974      0.00000
    473       4.5016      0.00000
    474       4.5228      0.00000
    475       4.5333      0.00000
    476       4.5385      0.00000
    477       4.5479      0.00000
    478       4.5537      0.00000
    479       4.5636      0.00000
    480       4.5698      0.00000
    481       4.5728      0.00000
    482       4.5781      0.00000
    483       4.5853      0.00000
    484       4.5917      0.00000
    485       4.6026      0.00000
    486       4.6059      0.00000
    487       4.6117      0.00000
    488       4.6180      0.00000
    489       4.6269      0.00000
    490       4.6303      0.00000
    491       4.6353      0.00000
    492       4.6395      0.00000
    493       4.6449      0.00000
    494       4.6497      0.00000
    495       4.6561      0.00000
    496       4.6623      0.00000
    497       4.6670      0.00000
    498       4.6709      0.00000
    499       4.6751      0.00000
    500       4.6831      0.00000
    501       4.6850      0.00000
    502       4.6893      0.00000
    503       4.6923      0.00000
    504       4.7057      0.00000
    505       4.7080      0.00000
    506       4.7183      0.00000
    507       4.7259      0.00000
    508       4.7290      0.00000
    509       4.7359      0.00000
    510       4.7550      0.00000
    511       4.7568      0.00000
    512       4.7618      0.00000
    513       4.7782      0.00000
    514       4.7856      0.00000
    515       4.7923      0.00000
    516       4.7972      0.00000
    517       4.8027      0.00000
    518       4.8082      0.00000
    519       4.8182      0.00000
    520       4.8231      0.00000
    521       4.8293      0.00000
    522       4.8348      0.00000
    523       4.8483      0.00000
    524       4.8587      0.00000
    525       4.8688      0.00000
    526       4.8859      0.00000
    527       4.8964      0.00000
    528       4.9050      0.00000
    529       4.9166      0.00000
    530       4.9286      0.00000
    531       4.9444      0.00000
    532       4.9567      0.00000
    533       4.9707      0.00000
    534       4.9926      0.00000
    535       5.0024      0.00000
    536       5.0269      0.00000
    537       5.0346      0.00000
    538       5.0600      0.00000
    539       5.0717      0.00000
    540       5.0826      0.00000
    541       5.0897      0.00000
    542       5.1041      0.00000
    543       5.1568      0.00000
    544       5.1838      0.00000
    545       5.2278      0.00000
    546       5.2455      0.00000
    547       5.2597      0.00000
    548       5.2800      0.00000
    549       5.2863      0.00000
    550       5.2929      0.00000
    551       5.3025      0.00000
    552       5.3283      0.00000
    553       5.3435      0.00000
    554       5.3673      0.00000
    555       5.4520      0.00000
    556       5.4831      0.00000
    557       5.5225      0.00000
    558       5.5350      0.00000
    559       5.5529      0.00000
    560       5.5634      0.00000
    561       5.5780      0.00000
    562       5.6044      0.00000
    563       5.6084      0.00000
    564       5.6323      0.00000
    565       5.6663      0.00000
    566       5.6730      0.00000
    567       5.6911      0.00000
    568       5.7002      0.00000
    569       5.7039      0.00000
    570       5.7182      0.00000
    571       5.7349      0.00000
    572       5.7512      0.00000
    573       5.7703      0.00000
    574       5.7808      0.00000
    575       5.8056      0.00000
    576       7.8258      0.00000
    577       7.9781      0.00000
    578       8.2277      0.00000
    579       8.2679      0.00000
    580       8.9737      0.00000
    581       9.0238      0.00000
    582       9.0810      0.00000
    583       9.3498      0.00000
    584       9.7081      0.00000
    585       9.7483      0.00000
    586      10.0182      0.00000
    587      10.0333      0.00000
    588      10.4451      0.00000
    589      10.4922      0.00000
    590      10.5098      0.00000
    591      10.5249      0.00000
    592      10.5329      0.00000
    593      10.5626      0.00000
    594      10.7274      0.00000
    595      10.7834      0.00000
    596      10.8092      0.00000
    597      10.8672      0.00000
    598      10.9056      0.00000
    599      10.9407      0.00000
    600      10.9637      0.00000
    601      10.9669      0.00000
    602      10.9821      0.00000
    603      11.0896      0.00000
    604      11.1057      0.00000
    605      11.1276      0.00000
    606      11.1597      0.00000
    607      11.1867      0.00000
    608      11.2477      0.00000
    609      11.2642      0.00000
    610      11.2905      0.00000
    611      11.3018      0.00000
    612      11.3095      0.00000
    613      11.3523      0.00000
    614      11.3934      0.00000
    615      11.4043      0.00000
    616      11.4622      0.00000
    617      11.4907      0.00000
    618      11.5213      0.00000
    619      11.5357      0.00000
    620      11.5521      0.00000
    621      11.5655      0.00000
    622      11.5791      0.00000
    623      11.5987      0.00000
    624      11.6065      0.00000
    625      11.6185      0.00000
    626      11.6327      0.00000
    627      11.6441      0.00000
    628      11.6559      0.00000
    629      11.6624      0.00000
    630      11.6723      0.00000
    631      11.6848      0.00000
    632      11.7220      0.00000
    633      11.7532      0.00000
    634      11.7888      0.00000
    635      11.8168      0.00000
    636      11.8443      0.00000
    637      11.8915      0.00000
    638      11.9274      0.00000
    639      11.9502      0.00000
    640      11.9684      0.00000
    641      11.9802      0.00000
    642      11.9990      0.00000
    643      12.0184      0.00000
    644      12.0302      0.00000
    645      12.0626      0.00000
    646      12.1288      0.00000
    647      12.1653      0.00000
    648      12.1887      0.00000
    649      12.2214      0.00000
    650      12.2332      0.00000
    651      12.2430      0.00000
    652      12.2656      0.00000
    653      12.2749      0.00000
    654      12.2831      0.00000
    655      12.2910      0.00000
    656      12.3159      0.00000
    657      12.3605      0.00000
    658      12.3802      0.00000
    659      12.4024      0.00000
    660      12.4181      0.00000
    661      12.4358      0.00000
    662      12.4821      0.00000
    663      12.5117      0.00000
    664      12.5261      0.00000
    665      12.5647      0.00000
    666      12.5696      0.00000
    667      12.5923      0.00000
    668      12.6092      0.00000
    669      12.6357      0.00000
    670      12.7903      0.00000
    671      12.8360      0.00000
    672      12.8993      0.00000
    673      12.9189      0.00000
    674      12.9575      0.00000
    675      13.1373      0.00000
    676      13.1925      0.00000
    677      13.2086      0.00000
    678      13.2267      0.00000
    679      13.2411      0.00000
    680      13.2760      0.00000
    681      13.2960      0.00000
    682      13.3616      0.00000
    683      13.3758      0.00000
    684      13.4105      0.00000
    685      13.4438      0.00000
    686      13.4627      0.00000
    687      13.4731      0.00000
    688      13.4918      0.00000
    689      13.5180      0.00000
    690      13.5509      0.00000
    691      13.5727      0.00000
    692      13.5964      0.00000
    693      13.6007      0.00000
    694      13.6944      0.00000
    695      13.7826      0.00000
    696      13.8630      0.00000

 k-point     3 :       0.0000    0.0000    0.3333
  band No.  band energies     occupation 
      1     -50.6304      1.00000
      2     -50.5514      1.00000
      3     -50.5298      1.00000
      4     -50.5065      1.00000
      5     -50.4976      1.00000
      6     -50.4942      1.00000
      7     -50.4936      1.00000
      8     -50.4842      1.00000
      9     -50.4807      1.00000
     10     -50.4803      1.00000
     11     -50.4750      1.00000
     12     -50.4692      1.00000
     13     -50.4620      1.00000
     14     -50.4603      1.00000
     15     -50.4548      1.00000
     16     -50.4492      1.00000
     17     -50.4464      1.00000
     18     -50.4457      1.00000
     19     -50.4434      1.00000
     20     -50.4357      1.00000
     21     -50.4339      1.00000
     22     -50.4295      1.00000
     23     -50.4194      1.00000
     24     -50.4111      1.00000
     25     -50.4027      1.00000
     26     -50.3947      1.00000
     27     -50.3921      1.00000
     28     -50.3904      1.00000
     29     -50.3884      1.00000
     30     -50.3861      1.00000
     31     -50.3816      1.00000
     32     -50.3780      1.00000
     33     -50.3768      1.00000
     34     -50.3730      1.00000
     35     -50.3688      1.00000
     36     -50.3671      1.00000
     37     -50.3664      1.00000
     38     -50.3581      1.00000
     39     -50.3544      1.00000
     40     -50.3540      1.00000
     41     -50.3474      1.00000
     42     -50.3440      1.00000
     43     -50.3434      1.00000
     44     -50.3396      1.00000
     45     -50.3335      1.00000
     46     -50.3270      1.00000
     47     -50.3268      1.00000
     48     -50.3204      1.00000
     49     -50.3154      1.00000
     50     -50.3117      1.00000
     51     -50.3103      1.00000
     52     -50.3064      1.00000
     53     -50.3037      1.00000
     54     -50.2915      1.00000
     55     -50.2859      1.00000
     56     -50.2828      1.00000
     57     -50.2812      1.00000
     58     -50.2732      1.00000
     59     -50.2712      1.00000
     60     -50.2682      1.00000
     61     -50.2676      1.00000
     62     -50.2667      1.00000
     63     -50.2621      1.00000
     64     -50.2590      1.00000
     65     -50.2290      1.00000
     66     -50.2246      1.00000
     67     -50.2172      1.00000
     68     -50.1984      1.00000
     69     -50.1789      1.00000
     70     -46.9627      1.00000
     71     -46.4321      1.00000
     72     -46.2217      1.00000
     73     -18.7851      1.00000
     74     -18.5184      1.00000
     75     -18.4816      1.00000
     76     -18.4009      1.00000
     77     -18.3168      1.00000
     78     -18.2992      1.00000
     79     -18.2663      1.00000
     80     -18.2311      1.00000
     81     -18.1899      1.00000
     82     -18.1571      1.00000
     83     -18.1328      1.00000
     84     -18.1146      1.00000
     85     -18.1074      1.00000
     86     -18.0919      1.00000
     87     -18.0879      1.00000
     88     -18.0676      1.00000
     89     -18.0549      1.00000
     90     -18.0377      1.00000
     91     -18.0281      1.00000
     92     -18.0230      1.00000
     93     -17.9991      1.00000
     94     -17.9831      1.00000
     95     -17.9641      1.00000
     96     -17.9439      1.00000
     97     -17.9141      1.00000
     98     -17.8999      1.00000
     99     -17.8453      1.00000
    100     -16.0374      1.00000
    101     -15.9869      1.00000
    102     -15.9668      1.00000
    103     -15.9501      1.00000
    104     -15.9319      1.00000
    105     -15.9114      1.00000
    106     -15.9010      1.00000
    107     -15.8823      1.00000
    108     -15.8798      1.00000
    109     -15.8477      1.00000
    110     -15.8359      1.00000
    111     -15.8189      1.00000
    112     -15.7967      1.00000
    113     -15.7817      1.00000
    114     -15.7752      1.00000
    115     -15.7624      1.00000
    116     -15.7591      1.00000
    117     -15.7497      1.00000
    118     -15.7340      1.00000
    119     -15.7295      1.00000
    120     -15.7215      1.00000
    121     -15.7123      1.00000
    122     -15.7074      1.00000
    123     -15.6893      1.00000
    124     -15.6747      1.00000
    125     -15.6599      1.00000
    126     -15.6517      1.00000
    127     -15.6341      1.00000
    128     -15.6262      1.00000
    129     -15.6093      1.00000
    130     -15.5978      1.00000
    131     -15.5893      1.00000
    132     -15.5785      1.00000
    133     -15.5685      1.00000
    134     -15.5565      1.00000
    135     -15.5390      1.00000
    136     -15.5170      1.00000
    137     -15.5105      1.00000
    138     -15.5072      1.00000
    139     -15.5003      1.00000
    140     -15.4927      1.00000
    141     -15.4860      1.00000
    142     -15.4734      1.00000
    143     -15.4692      1.00000
    144     -15.4631      1.00000
    145     -15.4562      1.00000
    146     -15.4512      1.00000
    147     -15.4440      1.00000
    148     -15.4379      1.00000
    149     -15.4283      1.00000
    150     -15.4227      1.00000
    151     -15.4143      1.00000
    152     -15.4088      1.00000
    153     -15.3976      1.00000
    154     -15.3909      1.00000
    155     -15.3869      1.00000
    156     -15.3782      1.00000
    157     -15.3714      1.00000
    158     -15.3625      1.00000
    159     -15.3523      1.00000
    160     -15.3495      1.00000
    161     -15.3421      1.00000
    162     -15.3370      1.00000
    163     -15.3267      1.00000
    164     -15.3185      1.00000
    165     -15.3085      1.00000
    166     -15.2996      1.00000
    167     -15.2971      1.00000
    168     -15.2687      1.00000
    169     -15.2525      1.00000
    170     -15.2257      1.00000
    171     -15.1156      1.00000
    172      -6.1249      1.00000
    173      -5.9589      1.00000
    174      -5.9365      1.00000
    175      -5.9014      1.00000
    176      -5.7767      1.00000
    177      -5.7443      1.00000
    178      -5.6000      1.00000
    179      -5.5823      1.00000
    180      -5.5442      1.00000
    181      -5.5219      1.00000
    182      -5.5014      1.00000
    183      -5.4830      1.00000
    184      -5.4632      1.00000
    185      -5.4195      1.00000
    186      -5.4070      1.00000
    187      -5.3856      1.00000
    188      -5.3715      1.00000
    189      -5.3533      1.00000
    190      -5.3212      1.00000
    191      -5.3070      1.00000
    192      -5.2805      1.00000
    193      -5.2289      1.00000
    194      -5.1886      1.00000
    195      -5.1305      1.00000
    196      -4.2108      1.00000
    197      -4.0202      1.00000
    198      -3.9905      1.00000
    199      -3.9565      1.00000
    200      -3.9180      1.00000
    201      -3.8133      1.00000
    202      -3.7956      1.00000
    203      -3.7649      1.00000
    204      -3.7366      1.00000
    205      -3.6816      1.00000
    206      -3.6396      1.00000
    207      -3.6215      1.00000
    208      -3.6115      1.00000
    209      -3.5862      1.00000
    210      -3.5608      1.00000
    211      -3.5466      1.00000
    212      -3.5341      1.00000
    213      -3.5292      1.00000
    214      -3.5132      1.00000
    215      -3.5026      1.00000
    216      -3.4853      1.00000
    217      -3.4618      1.00000
    218      -3.4251      1.00000
    219      -3.3984      1.00000
    220      -3.3561      1.00000
    221      -3.3392      1.00000
    222      -3.3211      1.00000
    223      -3.3133      1.00000
    224      -3.3072      1.00000
    225      -3.2953      1.00000
    226      -3.2791      1.00000
    227      -3.2726      1.00000
    228      -3.2521      1.00000
    229      -3.2397      1.00000
    230      -3.2248      1.00000
    231      -3.1842      1.00000
    232      -3.1691      1.00000
    233      -3.1486      1.00000
    234      -3.1376      1.00000
    235      -3.1198      1.00000
    236      -3.1032      1.00000
    237      -3.0614      1.00000
    238      -3.0454      1.00000
    239      -3.0361      1.00000
    240      -3.0250      1.00000
    241      -2.9986      1.00000
    242      -2.9672      1.00000
    243      -2.9537      1.00000
    244      -2.9457      1.00000
    245      -2.9425      1.00000
    246      -2.9183      1.00000
    247      -2.9124      1.00000
    248      -2.9058      1.00000
    249      -2.8852      1.00000
    250      -2.8688      1.00000
    251      -2.8612      1.00000
    252      -2.8478      1.00000
    253      -2.8290      1.00000
    254      -2.8240      1.00000
    255      -2.8023      1.00000
    256      -2.7853      1.00000
    257      -2.7640      1.00000
    258      -2.7581      1.00000
    259      -2.7005      1.00000
    260      -2.6932      1.00000
    261      -2.6820      1.00000
    262      -2.6805      1.00000
    263      -2.6495      1.00000
    264      -2.6244      1.00000
    265      -2.5855      1.00000
    266      -2.4639      1.00000
    267      -2.3573      1.00000
    268      -2.0156      1.00000
    269      -1.9870      1.00000
    270      -1.9464      1.00000
    271      -1.9253      1.00000
    272      -1.8280      1.00000
    273      -1.8026      1.00000
    274      -1.7928      1.00000
    275      -1.7758      1.00000
    276      -1.7472      1.00000
    277      -1.7311      1.00000
    278      -1.7223      1.00000
    279      -1.7090      1.00000
    280      -1.6882      1.00000
    281      -1.6008      1.00000
    282      -1.5827      1.00000
    283      -1.5479      1.00000
    284      -1.5168      1.00000
    285      -1.4814      1.00000
    286      -1.4377      1.00000
    287      -1.3628      1.00000
    288      -1.3229      1.00000
    289      -1.3060      1.00000
    290      -1.2606      1.00000
    291      -1.2249      1.00000
    292      -1.1962      1.00000
    293      -1.1768      1.00000
    294      -1.1536      1.00000
    295      -1.1476      1.00000
    296      -1.1277      1.00000
    297      -1.1265      1.00000
    298      -1.1056      1.00000
    299      -1.0502      1.00000
    300      -1.0055      1.00000
    301      -0.9786      1.00000
    302      -0.9467      1.00000
    303      -0.8868      1.00000
    304      -0.8626      1.00000
    305      -0.8477      1.00000
    306      -0.8458      1.00000
    307      -0.8327      1.00000
    308      -0.8241      1.00000
    309      -0.8141      1.00000
    310      -0.8003      1.00000
    311      -0.7814      1.00000
    312      -0.7530      1.00000
    313      -0.7408      1.00000
    314      -0.7279      1.00000
    315      -0.7220      1.00000
    316      -0.6976      1.00000
    317      -0.6938      1.00000
    318      -0.6743      1.00000
    319      -0.6604      1.00000
    320      -0.6360      1.00000
    321      -0.6248      1.00000
    322      -0.6045      1.00000
    323      -0.5991      1.00000
    324      -0.5762      1.00000
    325      -0.5638      1.00000
    326      -0.5284      1.00000
    327      -0.4819      1.00000
    328      -0.4577      1.00000
    329      -0.4403      1.00000
    330      -0.4263      1.00000
    331      -0.4133      1.00000
    332      -0.3918      1.00000
    333      -0.3782      1.00000
    334      -0.3643      1.00000
    335      -0.3424      1.00000
    336      -0.2591      1.00000
    337      -0.2164      1.00000
    338      -0.1840      1.00000
    339      -0.1479      1.00000
    340      -0.1352      1.00000
    341      -0.1295      1.00000
    342      -0.1098      1.00000
    343      -0.0988      1.00000
    344      -0.0888      1.00000
    345      -0.0653      1.00000
    346      -0.0496      1.00000
    347      -0.0257      1.00000
    348       0.0004      1.00000
    349       0.0228      1.00000
    350       0.0476      1.00000
    351       0.0669      1.00000
    352       0.0876      1.00000
    353       0.1030      1.00000
    354       0.1151      1.00000
    355       0.1432      1.00000
    356       0.1529      1.00000
    357       0.1760      1.00000
    358       0.2090      1.00000
    359       0.2288      1.00000
    360       0.2485      1.00000
    361       0.2598      1.00000
    362       0.2681      1.00000
    363       0.2775      1.00000
    364       0.3023      1.00000
    365       0.3132      1.00000
    366       0.3350      1.00000
    367       0.3396      1.00000
    368       0.3500      1.00000
    369       0.3581      1.00000
    370       0.3692      1.00000
    371       0.3768      1.00000
    372       0.3838      1.00000
    373       0.3971      1.00000
    374       0.4048      1.00000
    375       0.4391      1.00000
    376       0.4595      1.00000
    377       0.4705      1.00000
    378       0.4829      1.00000
    379       0.4980      1.00000
    380       0.5068      1.00000
    381       0.5298      1.00000
    382       0.5488      1.00000
    383       0.5591      1.00000
    384       0.5668      1.00000
    385       0.5785      1.00000
    386       0.5989      1.00000
    387       0.6099      1.00000
    388       0.6199      1.00000
    389       0.6520      1.00000
    390       0.6714      1.00000
    391       0.6927      1.00000
    392       0.7135      1.00000
    393       0.7549      1.00000
    394       0.7825      1.00000
    395       0.7947      1.00000
    396       0.8105      1.00000
    397       0.8151      1.00000
    398       0.8403      1.00000
    399       0.8451      1.00000
    400       0.8686      1.00000
    401       0.8704      1.00000
    402       0.8941      1.00000
    403       0.9144      1.00000
    404       0.9264      1.00000
    405       0.9322      1.00000
    406       0.9413      1.00000
    407       0.9504      1.00000
    408       1.0038      1.00000
    409       1.0443      1.00000
    410       1.0721      1.00000
    411       1.1060      1.00000
    412       1.1148      1.00000
    413       1.1389      1.00000
    414       1.1573      1.00000
    415       1.1785      1.00000
    416       1.2008      1.00000
    417       1.2030      1.00000
    418       1.2252      1.00000
    419       1.2343      1.00000
    420       1.2546      1.00000
    421       1.2629      1.00000
    422       1.2827      1.00000
    423       1.3070      1.00000
    424       1.3220      1.00000
    425       1.3388      1.00000
    426       1.3444      1.00000
    427       1.3671      1.00000
    428       1.3798      1.00000
    429       1.3867      1.00000
    430       1.4045      1.00000
    431       1.4140      1.00000
    432       1.4255      1.00000
    433       1.4502      1.00000
    434       1.4623      1.00000
    435       1.4706      1.00000
    436       1.4793      1.00000
    437       1.4884      1.00000
    438       1.4953      1.00000
    439       1.5179      1.00000
    440       1.5364      1.00000
    441       1.5538      1.00000
    442       1.5621      1.00000
    443       1.6066      1.00000
    444       1.6690      1.00000
    445       1.6991      1.00000
    446       1.7341      1.00000
    447       1.7535      1.00000
    448       1.7560      1.00000
    449       1.7774      1.00000
    450       1.7819      1.00000
    451       1.8155      1.00000
    452       1.8369      1.00000
    453       1.8462      1.00000
    454       1.8706      1.00000
    455       1.8863      1.00000
    456       1.9323      1.00000
    457       1.9830      1.00000
    458       1.9941      1.00000
    459       2.0668      1.00000
    460       3.2564      1.00000
    461       4.3157      0.00000
    462       4.3639      0.00000
    463       4.3896      0.00000
    464       4.3979      0.00000
    465       4.4009      0.00000
    466       4.4106      0.00000
    467       4.4185      0.00000
    468       4.4393      0.00000
    469       4.4448      0.00000
    470       4.4589      0.00000
    471       4.4656      0.00000
    472       4.4690      0.00000
    473       4.4801      0.00000
    474       4.4890      0.00000
    475       4.5037      0.00000
    476       4.5147      0.00000
    477       4.5185      0.00000
    478       4.5298      0.00000
    479       4.5329      0.00000
    480       4.5454      0.00000
    481       4.5559      0.00000
    482       4.5665      0.00000
    483       4.5731      0.00000
    484       4.5769      0.00000
    485       4.5914      0.00000
    486       4.5948      0.00000
    487       4.6025      0.00000
    488       4.6090      0.00000
    489       4.6182      0.00000
    490       4.6283      0.00000
    491       4.6359      0.00000
    492       4.6414      0.00000
    493       4.6526      0.00000
    494       4.6625      0.00000
    495       4.6666      0.00000
    496       4.6748      0.00000
    497       4.6783      0.00000
    498       4.6885      0.00000
    499       4.6895      0.00000
    500       4.6948      0.00000
    501       4.7035      0.00000
    502       4.7094      0.00000
    503       4.7136      0.00000
    504       4.7221      0.00000
    505       4.7290      0.00000
    506       4.7327      0.00000
    507       4.7405      0.00000
    508       4.7469      0.00000
    509       4.7542      0.00000
    510       4.7580      0.00000
    511       4.7666      0.00000
    512       4.7700      0.00000
    513       4.7794      0.00000
    514       4.8047      0.00000
    515       4.8077      0.00000
    516       4.8216      0.00000
    517       4.8300      0.00000
    518       4.8390      0.00000
    519       4.8464      0.00000
    520       4.8586      0.00000
    521       4.8643      0.00000
    522       4.8722      0.00000
    523       4.8863      0.00000
    524       4.8927      0.00000
    525       4.9050      0.00000
    526       4.9217      0.00000
    527       4.9273      0.00000
    528       4.9358      0.00000
    529       4.9427      0.00000
    530       4.9618      0.00000
    531       4.9697      0.00000
    532       4.9888      0.00000
    533       5.0005      0.00000
    534       5.0121      0.00000
    535       5.0268      0.00000
    536       5.0418      0.00000
    537       5.0467      0.00000
    538       5.0557      0.00000
    539       5.0661      0.00000
    540       5.0709      0.00000
    541       5.0871      0.00000
    542       5.1017      0.00000
    543       5.1401      0.00000
    544       5.1500      0.00000
    545       5.1793      0.00000
    546       5.1905      0.00000
    547       5.2047      0.00000
    548       5.2118      0.00000
    549       5.2461      0.00000
    550       5.2996      0.00000
    551       5.3354      0.00000
    552       5.3830      0.00000
    553       5.3904      0.00000
    554       5.4262      0.00000
    555       5.4460      0.00000
    556       5.4600      0.00000
    557       5.4846      0.00000
    558       5.5050      0.00000
    559       5.5332      0.00000
    560       5.5778      0.00000
    561       5.6007      0.00000
    562       5.6115      0.00000
    563       5.6262      0.00000
    564       5.6435      0.00000
    565       5.6540      0.00000
    566       5.6660      0.00000
    567       5.6763      0.00000
    568       5.6868      0.00000
    569       5.6940      0.00000
    570       5.7067      0.00000
    571       5.7190      0.00000
    572       5.7372      0.00000
    573       5.7483      0.00000
    574       5.7665      0.00000
    575       5.7841      0.00000
    576       7.8242      0.00000
    577       7.9793      0.00000
    578       8.2266      0.00000
    579       8.2518      0.00000
    580       8.9760      0.00000
    581       9.0354      0.00000
    582       9.0633      0.00000
    583       9.2831      0.00000
    584       9.7004      0.00000
    585       9.7329      0.00000
    586      10.2692      0.00000
    587      10.3166      0.00000
    588      10.4454      0.00000
    589      10.4709      0.00000
    590      10.5183      0.00000
    591      10.5717      0.00000
    592      10.6629      0.00000
    593      10.6696      0.00000
    594      10.7007      0.00000
    595      10.7131      0.00000
    596      10.7349      0.00000
    597      10.7428      0.00000
    598      10.7673      0.00000
    599      10.7848      0.00000
    600      10.9068      0.00000
    601      10.9555      0.00000
    602      10.9991      0.00000
    603      11.0078      0.00000
    604      11.0249      0.00000
    605      11.0487      0.00000
    606      11.0707      0.00000
    607      11.1011      0.00000
    608      11.1252      0.00000
    609      11.1618      0.00000
    610      11.1923      0.00000
    611      11.2179      0.00000
    612      11.2444      0.00000
    613      11.2658      0.00000
    614      11.2785      0.00000
    615      11.2992      0.00000
    616      11.3581      0.00000
    617      11.3991      0.00000
    618      11.4240      0.00000
    619      11.4661      0.00000
    620      11.4916      0.00000
    621      11.5002      0.00000
    622      11.5291      0.00000
    623      11.5461      0.00000
    624      11.5663      0.00000
    625      11.5800      0.00000
    626      11.6257      0.00000
    627      11.6355      0.00000
    628      11.6698      0.00000
    629      11.7139      0.00000
    630      11.7472      0.00000
    631      11.7868      0.00000
    632      11.8290      0.00000
    633      11.8466      0.00000
    634      11.8627      0.00000
    635      11.8682      0.00000
    636      11.8876      0.00000
    637      11.9757      0.00000
    638      11.9996      0.00000
    639      12.0123      0.00000
    640      12.0409      0.00000
    641      12.0545      0.00000
    642      12.0788      0.00000
    643      12.0958      0.00000
    644      12.1159      0.00000
    645      12.1670      0.00000
    646      12.1801      0.00000
    647      12.2041      0.00000
    648      12.2189      0.00000
    649      12.2478      0.00000
    650      12.2537      0.00000
    651      12.2706      0.00000
    652      12.2835      0.00000
    653      12.3006      0.00000
    654      12.3194      0.00000
    655      12.3711      0.00000
    656      12.3956      0.00000
    657      12.4166      0.00000
    658      12.4530      0.00000
    659      12.4694      0.00000
    660      12.4790      0.00000
    661      12.4972      0.00000
    662      12.5185      0.00000
    663      12.5329      0.00000
    664      12.5808      0.00000
    665      12.6456      0.00000
    666      12.6679      0.00000
    667      12.7224      0.00000
    668      12.7939      0.00000
    669      12.8189      0.00000
    670      12.8815      0.00000
    671      12.8913      0.00000
    672      12.9192      0.00000
    673      12.9391      0.00000
    674      12.9565      0.00000
    675      12.9781      0.00000
    676      12.9994      0.00000
    677      13.0506      0.00000
    678      13.0755      0.00000
    679      13.2326      0.00000
    680      13.2557      0.00000
    681      13.2778      0.00000
    682      13.3175      0.00000
    683      13.3429      0.00000
    684      13.3858      0.00000
    685      13.3916      0.00000
    686      13.4114      0.00000
    687      13.4304      0.00000
    688      13.4580      0.00000
    689      13.4800      0.00000
    690      13.4948      0.00000
    691      13.5313      0.00000
    692      13.5482      0.00000
    693      13.6336      0.00000
    694      13.6758      0.00000
    695      13.7331      0.00000
    696      13.7845      0.00000

 k-point     4 :       0.3333    0.0000    0.3333
  band No.  band energies     occupation 
      1     -50.6304      1.00000
      2     -50.5514      1.00000
      3     -50.5298      1.00000
      4     -50.5065      1.00000
      5     -50.4976      1.00000
      6     -50.4942      1.00000
      7     -50.4936      1.00000
      8     -50.4842      1.00000
      9     -50.4807      1.00000
     10     -50.4803      1.00000
     11     -50.4750      1.00000
     12     -50.4692      1.00000
     13     -50.4620      1.00000
     14     -50.4603      1.00000
     15     -50.4548      1.00000
     16     -50.4492      1.00000
     17     -50.4464      1.00000
     18     -50.4457      1.00000
     19     -50.4434      1.00000
     20     -50.4357      1.00000
     21     -50.4339      1.00000
     22     -50.4294      1.00000
     23     -50.4194      1.00000
     24     -50.4111      1.00000
     25     -50.4027      1.00000
     26     -50.3947      1.00000
     27     -50.3921      1.00000
     28     -50.3904      1.00000
     29     -50.3884      1.00000
     30     -50.3861      1.00000
     31     -50.3816      1.00000
     32     -50.3780      1.00000
     33     -50.3768      1.00000
     34     -50.3730      1.00000
     35     -50.3688      1.00000
     36     -50.3671      1.00000
     37     -50.3664      1.00000
     38     -50.3581      1.00000
     39     -50.3544      1.00000
     40     -50.3540      1.00000
     41     -50.3474      1.00000
     42     -50.3440      1.00000
     43     -50.3434      1.00000
     44     -50.3396      1.00000
     45     -50.3335      1.00000
     46     -50.3270      1.00000
     47     -50.3268      1.00000
     48     -50.3204      1.00000
     49     -50.3154      1.00000
     50     -50.3117      1.00000
     51     -50.3103      1.00000
     52     -50.3064      1.00000
     53     -50.3037      1.00000
     54     -50.2915      1.00000
     55     -50.2859      1.00000
     56     -50.2828      1.00000
     57     -50.2812      1.00000
     58     -50.2732      1.00000
     59     -50.2712      1.00000
     60     -50.2682      1.00000
     61     -50.2676      1.00000
     62     -50.2667      1.00000
     63     -50.2621      1.00000
     64     -50.2590      1.00000
     65     -50.2290      1.00000
     66     -50.2246      1.00000
     67     -50.2172      1.00000
     68     -50.1984      1.00000
     69     -50.1789      1.00000
     70     -46.9627      1.00000
     71     -46.4321      1.00000
     72     -46.2217      1.00000
     73     -18.7846      1.00000
     74     -18.5182      1.00000
     75     -18.4815      1.00000
     76     -18.3775      1.00000
     77     -18.3059      1.00000
     78     -18.2819      1.00000
     79     -18.2433      1.00000
     80     -18.2304      1.00000
     81     -18.2078      1.00000
     82     -18.1840      1.00000
     83     -18.1717      1.00000
     84     -18.1552      1.00000
     85     -18.1280      1.00000
     86     -18.1128      1.00000
     87     -18.0858      1.00000
     88     -18.0645      1.00000
     89     -18.0486      1.00000
     90     -18.0228      1.00000
     91     -18.0207      1.00000
     92     -17.9969      1.00000
     93     -17.9874      1.00000
     94     -17.9764      1.00000
     95     -17.9649      1.00000
     96     -17.9414      1.00000
     97     -17.9083      1.00000
     98     -17.8957      1.00000
     99     -17.8516      1.00000
    100     -16.0296      1.00000
    101     -15.9720      1.00000
    102     -15.9394      1.00000
    103     -15.9302      1.00000
    104     -15.9134      1.00000
    105     -15.8940      1.00000
    106     -15.8804      1.00000
    107     -15.8755      1.00000
    108     -15.8604      1.00000
    109     -15.8461      1.00000
    110     -15.8315      1.00000
    111     -15.8208      1.00000
    112     -15.8106      1.00000
    113     -15.8067      1.00000
    114     -15.8014      1.00000
    115     -15.7895      1.00000
    116     -15.7800      1.00000
    117     -15.7693      1.00000
    118     -15.7580      1.00000
    119     -15.7487      1.00000
    120     -15.7394      1.00000
    121     -15.7208      1.00000
    122     -15.7002      1.00000
    123     -15.6942      1.00000
    124     -15.6855      1.00000
    125     -15.6600      1.00000
    126     -15.6307      1.00000
    127     -15.6089      1.00000
    128     -15.5988      1.00000
    129     -15.5923      1.00000
    130     -15.5862      1.00000
    131     -15.5784      1.00000
    132     -15.5676      1.00000
    133     -15.5541      1.00000
    134     -15.5462      1.00000
    135     -15.5324      1.00000
    136     -15.5273      1.00000
    137     -15.5250      1.00000
    138     -15.5175      1.00000
    139     -15.5120      1.00000
    140     -15.5056      1.00000
    141     -15.5024      1.00000
    142     -15.4982      1.00000
    143     -15.4917      1.00000
    144     -15.4759      1.00000
    145     -15.4688      1.00000
    146     -15.4601      1.00000
    147     -15.4403      1.00000
    148     -15.4332      1.00000
    149     -15.4305      1.00000
    150     -15.4146      1.00000
    151     -15.4083      1.00000
    152     -15.4030      1.00000
    153     -15.3939      1.00000
    154     -15.3843      1.00000
    155     -15.3766      1.00000
    156     -15.3682      1.00000
    157     -15.3653      1.00000
    158     -15.3568      1.00000
    159     -15.3543      1.00000
    160     -15.3457      1.00000
    161     -15.3417      1.00000
    162     -15.3322      1.00000
    163     -15.3302      1.00000
    164     -15.3243      1.00000
    165     -15.3119      1.00000
    166     -15.3026      1.00000
    167     -15.2891      1.00000
    168     -15.2680      1.00000
    169     -15.2573      1.00000
    170     -15.2278      1.00000
    171     -15.1158      1.00000
    172      -6.0226      1.00000
    173      -5.8795      1.00000
    174      -5.8391      1.00000
    175      -5.8096      1.00000
    176      -5.7494      1.00000
    177      -5.7173      1.00000
    178      -5.6829      1.00000
    179      -5.6563      1.00000
    180      -5.5771      1.00000
    181      -5.5563      1.00000
    182      -5.5414      1.00000
    183      -5.5263      1.00000
    184      -5.4894      1.00000
    185      -5.4573      1.00000
    186      -5.4369      1.00000
    187      -5.4090      1.00000
    188      -5.3776      1.00000
    189      -5.3495      1.00000
    190      -5.3396      1.00000
    191      -5.3068      1.00000
    192      -5.2777      1.00000
    193      -5.2671      1.00000
    194      -5.2250      1.00000
    195      -5.1323      1.00000
    196      -4.1814      1.00000
    197      -4.0345      1.00000
    198      -3.9624      1.00000
    199      -3.9512      1.00000
    200      -3.9134      1.00000
    201      -3.8441      1.00000
    202      -3.8290      1.00000
    203      -3.7893      1.00000
    204      -3.7385      1.00000
    205      -3.7161      1.00000
    206      -3.6490      1.00000
    207      -3.6204      1.00000
    208      -3.5952      1.00000
    209      -3.5640      1.00000
    210      -3.5144      1.00000
    211      -3.5071      1.00000
    212      -3.4905      1.00000
    213      -3.4850      1.00000
    214      -3.4673      1.00000
    215      -3.4609      1.00000
    216      -3.4417      1.00000
    217      -3.4345      1.00000
    218      -3.4039      1.00000
    219      -3.3919      1.00000
    220      -3.3567      1.00000
    221      -3.3387      1.00000
    222      -3.3092      1.00000
    223      -3.2982      1.00000
    224      -3.2860      1.00000
    225      -3.2708      1.00000
    226      -3.2543      1.00000
    227      -3.2396      1.00000
    228      -3.2340      1.00000
    229      -3.2077      1.00000
    230      -3.1952      1.00000
    231      -3.1863      1.00000
    232      -3.1775      1.00000
    233      -3.1617      1.00000
    234      -3.1475      1.00000
    235      -3.1410      1.00000
    236      -3.1394      1.00000
    237      -3.1243      1.00000
    238      -3.1021      1.00000
    239      -3.0848      1.00000
    240      -3.0752      1.00000
    241      -3.0420      1.00000
    242      -3.0364      1.00000
    243      -3.0302      1.00000
    244      -2.9920      1.00000
    245      -2.9793      1.00000
    246      -2.9706      1.00000
    247      -2.9544      1.00000
    248      -2.9345      1.00000
    249      -2.9044      1.00000
    250      -2.8763      1.00000
    251      -2.8658      1.00000
    252      -2.8360      1.00000
    253      -2.8102      1.00000
    254      -2.8008      1.00000
    255      -2.7930      1.00000
    256      -2.7794      1.00000
    257      -2.7611      1.00000
    258      -2.7380      1.00000
    259      -2.7320      1.00000
    260      -2.6963      1.00000
    261      -2.6883      1.00000
    262      -2.6793      1.00000
    263      -2.6643      1.00000
    264      -2.6481      1.00000
    265      -2.5961      1.00000
    266      -2.5010      1.00000
    267      -2.4091      1.00000
    268      -1.9826      1.00000
    269      -1.9465      1.00000
    270      -1.9112      1.00000
    271      -1.8843      1.00000
    272      -1.8269      1.00000
    273      -1.8135      1.00000
    274      -1.8086      1.00000
    275      -1.7971      1.00000
    276      -1.7826      1.00000
    277      -1.7459      1.00000
    278      -1.7278      1.00000
    279      -1.6834      1.00000
    280      -1.6679      1.00000
    281      -1.6269      1.00000
    282      -1.5539      1.00000
    283      -1.5301      1.00000
    284      -1.4951      1.00000
    285      -1.4559      1.00000
    286      -1.3988      1.00000
    287      -1.3538      1.00000
    288      -1.3206      1.00000
    289      -1.2596      1.00000
    290      -1.1898      1.00000
    291      -1.1717      1.00000
    292      -1.1483      1.00000
    293      -1.1324      1.00000
    294      -1.1035      1.00000
    295      -1.0593      1.00000
    296      -1.0281      1.00000
    297      -1.0001      1.00000
    298      -0.9890      1.00000
    299      -0.9655      1.00000
    300      -0.9487      1.00000
    301      -0.9348      1.00000
    302      -0.9168      1.00000
    303      -0.9019      1.00000
    304      -0.8914      1.00000
    305      -0.8814      1.00000
    306      -0.8485      1.00000
    307      -0.8405      1.00000
    308      -0.8017      1.00000
    309      -0.7896      1.00000
    310      -0.7750      1.00000
    311      -0.7651      1.00000
    312      -0.7339      1.00000
    313      -0.7238      1.00000
    314      -0.7114      1.00000
    315      -0.7034      1.00000
    316      -0.6900      1.00000
    317      -0.6792      1.00000
    318      -0.6583      1.00000
    319      -0.6271      1.00000
    320      -0.6162      1.00000
    321      -0.6123      1.00000
    322      -0.5920      1.00000
    323      -0.5786      1.00000
    324      -0.5656      1.00000
    325      -0.5573      1.00000
    326      -0.5238      1.00000
    327      -0.5107      1.00000
    328      -0.4911      1.00000
    329      -0.4703      1.00000
    330      -0.4592      1.00000
    331      -0.4384      1.00000
    332      -0.4171      1.00000
    333      -0.4046      1.00000
    334      -0.3851      1.00000
    335      -0.3629      1.00000
    336      -0.3491      1.00000
    337      -0.2440      1.00000
    338      -0.2165      1.00000
    339      -0.1991      1.00000
    340      -0.1821      1.00000
    341      -0.1724      1.00000
    342      -0.1448      1.00000
    343      -0.1038      1.00000
    344      -0.0658      1.00000
    345      -0.0537      1.00000
    346      -0.0440      1.00000
    347      -0.0309      1.00000
    348      -0.0108      1.00000
    349      -0.0012      1.00000
    350       0.0058      1.00000
    351       0.0163      1.00000
    352       0.0311      1.00000
    353       0.0498      1.00000
    354       0.0650      1.00000
    355       0.0836      1.00000
    356       0.0917      1.00000
    357       0.1029      1.00000
    358       0.1248      1.00000
    359       0.1364      1.00000
    360       0.1410      1.00000
    361       0.1577      1.00000
    362       0.1747      1.00000
    363       0.2173      1.00000
    364       0.2583      1.00000
    365       0.2765      1.00000
    366       0.2866      1.00000
    367       0.3028      1.00000
    368       0.3169      1.00000
    369       0.3276      1.00000
    370       0.3386      1.00000
    371       0.3435      1.00000
    372       0.3488      1.00000
    373       0.3641      1.00000
    374       0.3876      1.00000
    375       0.4058      1.00000
    376       0.4177      1.00000
    377       0.4366      1.00000
    378       0.4505      1.00000
    379       0.4646      1.00000
    380       0.4848      1.00000
    381       0.5105      1.00000
    382       0.5154      1.00000
    383       0.5397      1.00000
    384       0.5582      1.00000
    385       0.5667      1.00000
    386       0.6219      1.00000
    387       0.6376      1.00000
    388       0.7020      1.00000
    389       0.7312      1.00000
    390       0.7632      1.00000
    391       0.7999      1.00000
    392       0.8046      1.00000
    393       0.8099      1.00000
    394       0.8422      1.00000
    395       0.8528      1.00000
    396       0.8646      1.00000
    397       0.8743      1.00000
    398       0.8907      1.00000
    399       0.9114      1.00000
    400       0.9347      1.00000
    401       0.9400      1.00000
    402       0.9697      1.00000
    403       0.9800      1.00000
    404       1.0012      1.00000
    405       1.0123      1.00000
    406       1.0354      1.00000
    407       1.0359      1.00000
    408       1.0792      1.00000
    409       1.0827      1.00000
    410       1.1070      1.00000
    411       1.1288      1.00000
    412       1.1417      1.00000
    413       1.1536      1.00000
    414       1.1905      1.00000
    415       1.2008      1.00000
    416       1.2109      1.00000
    417       1.2200      1.00000
    418       1.2347      1.00000
    419       1.2382      1.00000
    420       1.2447      1.00000
    421       1.2661      1.00000
    422       1.2806      1.00000
    423       1.3014      1.00000
    424       1.3197      1.00000
    425       1.3321      1.00000
    426       1.3450      1.00000
    427       1.3645      1.00000
    428       1.3758      1.00000
    429       1.3878      1.00000
    430       1.3923      1.00000
    431       1.4005      1.00000
    432       1.4163      1.00000
    433       1.4296      1.00000
    434       1.4359      1.00000
    435       1.4420      1.00000
    436       1.4516      1.00000
    437       1.4713      1.00000
    438       1.5018      1.00000
    439       1.5228      1.00000
    440       1.5334      1.00000
    441       1.5548      1.00000
    442       1.5785      1.00000
    443       1.6028      1.00000
    444       1.6290      1.00000
    445       1.6359      1.00000
    446       1.6606      1.00000
    447       1.6706      1.00000
    448       1.6768      1.00000
    449       1.6983      1.00000
    450       1.7397      1.00000
    451       1.7578      1.00000
    452       1.8031      1.00000
    453       1.8145      1.00000
    454       1.8482      1.00000
    455       1.8796      1.00000
    456       1.9584      1.00000
    457       2.0156      1.00000
    458       2.0249      1.00000
    459       2.1001      1.00000
    460       3.2539      1.00000
    461       4.3182      0.00000
    462       4.3665      0.00000
    463       4.3949      0.00000
    464       4.4029      0.00000
    465       4.4103      0.00000
    466       4.4165      0.00000
    467       4.4278      0.00000
    468       4.4370      0.00000
    469       4.4567      0.00000
    470       4.4617      0.00000
    471       4.4696      0.00000
    472       4.4779      0.00000
    473       4.4860      0.00000
    474       4.4876      0.00000
    475       4.4914      0.00000
    476       4.5057      0.00000
    477       4.5080      0.00000
    478       4.5165      0.00000
    479       4.5250      0.00000
    480       4.5436      0.00000
    481       4.5556      0.00000
    482       4.5679      0.00000
    483       4.5721      0.00000
    484       4.5810      0.00000
    485       4.5922      0.00000
    486       4.6069      0.00000
    487       4.6102      0.00000
    488       4.6200      0.00000
    489       4.6248      0.00000
    490       4.6309      0.00000
    491       4.6343      0.00000
    492       4.6426      0.00000
    493       4.6517      0.00000
    494       4.6600      0.00000
    495       4.6612      0.00000
    496       4.6721      0.00000
    497       4.6809      0.00000
    498       4.6851      0.00000
    499       4.6944      0.00000
    500       4.7005      0.00000
    501       4.7034      0.00000
    502       4.7096      0.00000
    503       4.7184      0.00000
    504       4.7267      0.00000
    505       4.7325      0.00000
    506       4.7385      0.00000
    507       4.7530      0.00000
    508       4.7591      0.00000
    509       4.7636      0.00000
    510       4.7715      0.00000
    511       4.7831      0.00000
    512       4.7891      0.00000
    513       4.7944      0.00000
    514       4.8050      0.00000
    515       4.8106      0.00000
    516       4.8210      0.00000
    517       4.8306      0.00000
    518       4.8355      0.00000
    519       4.8379      0.00000
    520       4.8468      0.00000
    521       4.8532      0.00000
    522       4.8636      0.00000
    523       4.8781      0.00000
    524       4.8823      0.00000
    525       4.9038      0.00000
    526       4.9118      0.00000
    527       4.9140      0.00000
    528       4.9308      0.00000
    529       4.9391      0.00000
    530       4.9488      0.00000
    531       4.9529      0.00000
    532       4.9657      0.00000
    533       4.9750      0.00000
    534       4.9882      0.00000
    535       4.9928      0.00000
    536       5.0087      0.00000
    537       5.0216      0.00000
    538       5.0361      0.00000
    539       5.0633      0.00000
    540       5.0819      0.00000
    541       5.0918      0.00000
    542       5.0995      0.00000
    543       5.1364      0.00000
    544       5.1496      0.00000
    545       5.1646      0.00000
    546       5.1954      0.00000
    547       5.2148      0.00000
    548       5.2220      0.00000
    549       5.2386      0.00000
    550       5.2817      0.00000
    551       5.2987      0.00000
    552       5.3387      0.00000
    553       5.4405      0.00000
    554       5.4627      0.00000
    555       5.4856      0.00000
    556       5.4932      0.00000
    557       5.5057      0.00000
    558       5.5263      0.00000
    559       5.5468      0.00000
    560       5.5756      0.00000
    561       5.5875      0.00000
    562       5.6000      0.00000
    563       5.6078      0.00000
    564       5.6266      0.00000
    565       5.6350      0.00000
    566       5.6521      0.00000
    567       5.6644      0.00000
    568       5.6964      0.00000
    569       5.7051      0.00000
    570       5.7179      0.00000
    571       5.7297      0.00000
    572       5.7466      0.00000
    573       5.7612      0.00000
    574       5.7703      0.00000
    575       5.7860      0.00000
    576       7.8264      0.00000
    577       7.9780      0.00000
    578       8.2306      0.00000
    579       8.5791      0.00000
    580       9.1015      0.00000
    581       9.2425      0.00000
    582       9.2936      0.00000
    583       9.3393      0.00000
    584       9.5191      0.00000
    585       9.8651      0.00000
    586       9.9109      0.00000
    587       9.9386      0.00000
    588       9.9449      0.00000
    589       9.9977      0.00000
    590      10.3828      0.00000
    591      10.4123      0.00000
    592      10.5748      0.00000
    593      10.6259      0.00000
    594      10.7116      0.00000
    595      10.7808      0.00000
    596      10.8340      0.00000
    597      10.8442      0.00000
    598      10.8550      0.00000
    599      10.8781      0.00000
    600      10.9146      0.00000
    601      10.9429      0.00000
    602      10.9597      0.00000
    603      11.0176      0.00000
    604      11.1325      0.00000
    605      11.1839      0.00000
    606      11.2027      0.00000
    607      11.2325      0.00000
    608      11.2524      0.00000
    609      11.2637      0.00000
    610      11.2765      0.00000
    611      11.3033      0.00000
    612      11.3180      0.00000
    613      11.3382      0.00000
    614      11.3494      0.00000
    615      11.3755      0.00000
    616      11.3797      0.00000
    617      11.4070      0.00000
    618      11.4320      0.00000
    619      11.4575      0.00000
    620      11.4981      0.00000
    621      11.5100      0.00000
    622      11.5356      0.00000
    623      11.6033      0.00000
    624      11.6137      0.00000
    625      11.6386      0.00000
    626      11.6516      0.00000
    627      11.6670      0.00000
    628      11.6819      0.00000
    629      11.7186      0.00000
    630      11.7708      0.00000
    631      11.7904      0.00000
    632      11.8099      0.00000
    633      11.8214      0.00000
    634      11.8887      0.00000
    635      11.9065      0.00000
    636      11.9175      0.00000
    637      11.9307      0.00000
    638      11.9908      0.00000
    639      12.0184      0.00000
    640      12.0316      0.00000
    641      12.0427      0.00000
    642      12.0681      0.00000
    643      12.0808      0.00000
    644      12.1043      0.00000
    645      12.1153      0.00000
    646      12.1353      0.00000
    647      12.1646      0.00000
    648      12.1972      0.00000
    649      12.2125      0.00000
    650      12.2475      0.00000
    651      12.2636      0.00000
    652      12.2696      0.00000
    653      12.2951      0.00000
    654      12.3416      0.00000
    655      12.3500      0.00000
    656      12.3861      0.00000
    657      12.3973      0.00000
    658      12.4259      0.00000
    659      12.4564      0.00000
    660      12.4725      0.00000
    661      12.4816      0.00000
    662      12.5115      0.00000
    663      12.5959      0.00000
    664      12.6268      0.00000
    665      12.6520      0.00000
    666      12.6772      0.00000
    667      12.6993      0.00000
    668      12.7241      0.00000
    669      12.7858      0.00000
    670      12.8039      0.00000
    671      12.8354      0.00000
    672      12.8445      0.00000
    673      13.0010      0.00000
    674      13.0220      0.00000
    675      13.0780      0.00000
    676      13.1073      0.00000
    677      13.1123      0.00000
    678      13.1398      0.00000
    679      13.1651      0.00000
    680      13.1758      0.00000
    681      13.1915      0.00000
    682      13.2380      0.00000
    683      13.2775      0.00000
    684      13.3118      0.00000
    685      13.3248      0.00000
    686      13.4577      0.00000
    687      13.5101      0.00000
    688      13.5509      0.00000
    689      13.5724      0.00000
    690      13.5965      0.00000
    691      13.6168      0.00000
    692      13.6340      0.00000
    693      13.6543      0.00000
    694      13.6907      0.00000
    695      13.7156      0.00000
    696      13.7966      0.00000

 k-point     5 :      -0.3333    0.0000    0.3333
  band No.  band energies     occupation 
      1     -50.6304      1.00000
      2     -50.5514      1.00000
      3     -50.5298      1.00000
      4     -50.5065      1.00000
      5     -50.4976      1.00000
      6     -50.4942      1.00000
      7     -50.4936      1.00000
      8     -50.4842      1.00000
      9     -50.4807      1.00000
     10     -50.4803      1.00000
     11     -50.4750      1.00000
     12     -50.4692      1.00000
     13     -50.4620      1.00000
     14     -50.4603      1.00000
     15     -50.4548      1.00000
     16     -50.4492      1.00000
     17     -50.4464      1.00000
     18     -50.4457      1.00000
     19     -50.4434      1.00000
     20     -50.4357      1.00000
     21     -50.4339      1.00000
     22     -50.4294      1.00000
     23     -50.4194      1.00000
     24     -50.4111      1.00000
     25     -50.4027      1.00000
     26     -50.3947      1.00000
     27     -50.3921      1.00000
     28     -50.3904      1.00000
     29     -50.3884      1.00000
     30     -50.3861      1.00000
     31     -50.3816      1.00000
     32     -50.3780      1.00000
     33     -50.3768      1.00000
     34     -50.3730      1.00000
     35     -50.3688      1.00000
     36     -50.3671      1.00000
     37     -50.3664      1.00000
     38     -50.3581      1.00000
     39     -50.3544      1.00000
     40     -50.3540      1.00000
     41     -50.3474      1.00000
     42     -50.3440      1.00000
     43     -50.3434      1.00000
     44     -50.3396      1.00000
     45     -50.3335      1.00000
     46     -50.3270      1.00000
     47     -50.3268      1.00000
     48     -50.3204      1.00000
     49     -50.3154      1.00000
     50     -50.3117      1.00000
     51     -50.3103      1.00000
     52     -50.3064      1.00000
     53     -50.3037      1.00000
     54     -50.2915      1.00000
     55     -50.2859      1.00000
     56     -50.2828      1.00000
     57     -50.2812      1.00000
     58     -50.2732      1.00000
     59     -50.2712      1.00000
     60     -50.2682      1.00000
     61     -50.2676      1.00000
     62     -50.2667      1.00000
     63     -50.2621      1.00000
     64     -50.2590      1.00000
     65     -50.2290      1.00000
     66     -50.2246      1.00000
     67     -50.2172      1.00000
     68     -50.1984      1.00000
     69     -50.1789      1.00000
     70     -46.9627      1.00000
     71     -46.4321      1.00000
     72     -46.2217      1.00000
     73     -18.7850      1.00000
     74     -18.5173      1.00000
     75     -18.4815      1.00000
     76     -18.3685      1.00000
     77     -18.3204      1.00000
     78     -18.2770      1.00000
     79     -18.2499      1.00000
     80     -18.2304      1.00000
     81     -18.2060      1.00000
     82     -18.1824      1.00000
     83     -18.1712      1.00000
     84     -18.1543      1.00000
     85     -18.1275      1.00000
     86     -18.1141      1.00000
     87     -18.0858      1.00000
     88     -18.0587      1.00000
     89     -18.0497      1.00000
     90     -18.0239      1.00000
     91     -18.0204      1.00000
     92     -18.0001      1.00000
     93     -17.9884      1.00000
     94     -17.9718      1.00000
     95     -17.9602      1.00000
     96     -17.9457      1.00000
     97     -17.9106      1.00000
     98     -17.8955      1.00000
     99     -17.8515      1.00000
    100     -16.0250      1.00000
    101     -15.9730      1.00000
    102     -15.9505      1.00000
    103     -15.9367      1.00000
    104     -15.9081      1.00000
    105     -15.8899      1.00000
    106     -15.8825      1.00000
    107     -15.8676      1.00000
    108     -15.8566      1.00000
    109     -15.8482      1.00000
    110     -15.8313      1.00000
    111     -15.8222      1.00000
    112     -15.8149      1.00000
    113     -15.8039      1.00000
    114     -15.7968      1.00000
    115     -15.7859      1.00000
    116     -15.7768      1.00000
    117     -15.7680      1.00000
    118     -15.7648      1.00000
    119     -15.7552      1.00000
    120     -15.7417      1.00000
    121     -15.7218      1.00000
    122     -15.7016      1.00000
    123     -15.6941      1.00000
    124     -15.6779      1.00000
    125     -15.6572      1.00000
    126     -15.6366      1.00000
    127     -15.6139      1.00000
    128     -15.6027      1.00000
    129     -15.5904      1.00000
    130     -15.5782      1.00000
    131     -15.5720      1.00000
    132     -15.5656      1.00000
    133     -15.5615      1.00000
    134     -15.5537      1.00000
    135     -15.5345      1.00000
    136     -15.5298      1.00000
    137     -15.5186      1.00000
    138     -15.5133      1.00000
    139     -15.5108      1.00000
    140     -15.5044      1.00000
    141     -15.4992      1.00000
    142     -15.4946      1.00000
    143     -15.4915      1.00000
    144     -15.4839      1.00000
    145     -15.4682      1.00000
    146     -15.4643      1.00000
    147     -15.4432      1.00000
    148     -15.4330      1.00000
    149     -15.4225      1.00000
    150     -15.4169      1.00000
    151     -15.4081      1.00000
    152     -15.4039      1.00000
    153     -15.3934      1.00000
    154     -15.3848      1.00000
    155     -15.3775      1.00000
    156     -15.3732      1.00000
    157     -15.3630      1.00000
    158     -15.3542      1.00000
    159     -15.3503      1.00000
    160     -15.3457      1.00000
    161     -15.3433      1.00000
    162     -15.3346      1.00000
    163     -15.3300      1.00000
    164     -15.3212      1.00000
    165     -15.3145      1.00000
    166     -15.3019      1.00000
    167     -15.2893      1.00000
    168     -15.2688      1.00000
    169     -15.2569      1.00000
    170     -15.2277      1.00000
    171     -15.1158      1.00000
    172      -6.0211      1.00000
    173      -5.8863      1.00000
    174      -5.8358      1.00000
    175      -5.8055      1.00000
    176      -5.7529      1.00000
    177      -5.7147      1.00000
    178      -5.6819      1.00000
    179      -5.6654      1.00000
    180      -5.5764      1.00000
    181      -5.5596      1.00000
    182      -5.5270      1.00000
    183      -5.5201      1.00000
    184      -5.4853      1.00000
    185      -5.4702      1.00000
    186      -5.4423      1.00000
    187      -5.4061      1.00000
    188      -5.3745      1.00000
    189      -5.3533      1.00000
    190      -5.3399      1.00000
    191      -5.3000      1.00000
    192      -5.2831      1.00000
    193      -5.2731      1.00000
    194      -5.2150      1.00000
    195      -5.1373      1.00000
    196      -4.1796      1.00000
    197      -4.0316      1.00000
    198      -3.9614      1.00000
    199      -3.9481      1.00000
    200      -3.9145      1.00000
    201      -3.8463      1.00000
    202      -3.8348      1.00000
    203      -3.7823      1.00000
    204      -3.7365      1.00000
    205      -3.7281      1.00000
    206      -3.6527      1.00000
    207      -3.6139      1.00000
    208      -3.5951      1.00000
    209      -3.5695      1.00000
    210      -3.5307      1.00000
    211      -3.5017      1.00000
    212      -3.4973      1.00000
    213      -3.4751      1.00000
    214      -3.4629      1.00000
    215      -3.4532      1.00000
    216      -3.4380      1.00000
    217      -3.4258      1.00000
    218      -3.4064      1.00000
    219      -3.3954      1.00000
    220      -3.3437      1.00000
    221      -3.3333      1.00000
    222      -3.3119      1.00000
    223      -3.3017      1.00000
    224      -3.2889      1.00000
    225      -3.2687      1.00000
    226      -3.2609      1.00000
    227      -3.2380      1.00000
    228      -3.2289      1.00000
    229      -3.2197      1.00000
    230      -3.1998      1.00000
    231      -3.1892      1.00000
    232      -3.1714      1.00000
    233      -3.1644      1.00000
    234      -3.1544      1.00000
    235      -3.1407      1.00000
    236      -3.1320      1.00000
    237      -3.1208      1.00000
    238      -3.1075      1.00000
    239      -3.0922      1.00000
    240      -3.0721      1.00000
    241      -3.0530      1.00000
    242      -3.0318      1.00000
    243      -3.0188      1.00000
    244      -2.9969      1.00000
    245      -2.9778      1.00000
    246      -2.9768      1.00000
    247      -2.9434      1.00000
    248      -2.9360      1.00000
    249      -2.9083      1.00000
    250      -2.8759      1.00000
    251      -2.8677      1.00000
    252      -2.8283      1.00000
    253      -2.8217      1.00000
    254      -2.8011      1.00000
    255      -2.7921      1.00000
    256      -2.7737      1.00000
    257      -2.7593      1.00000
    258      -2.7415      1.00000
    259      -2.7212      1.00000
    260      -2.7045      1.00000
    261      -2.6835      1.00000
    262      -2.6698      1.00000
    263      -2.6614      1.00000
    264      -2.6408      1.00000
    265      -2.6342      1.00000
    266      -2.4895      1.00000
    267      -2.4015      1.00000
    268      -1.9764      1.00000
    269      -1.9446      1.00000
    270      -1.9176      1.00000
    271      -1.8852      1.00000
    272      -1.8347      1.00000
    273      -1.8167      1.00000
    274      -1.8083      1.00000
    275      -1.7921      1.00000
    276      -1.7837      1.00000
    277      -1.7480      1.00000
    278      -1.7285      1.00000
    279      -1.6905      1.00000
    280      -1.6631      1.00000
    281      -1.6103      1.00000
    282      -1.5432      1.00000
    283      -1.5134      1.00000
    284      -1.4925      1.00000
    285      -1.4849      1.00000
    286      -1.3881      1.00000
    287      -1.3606      1.00000
    288      -1.3314      1.00000
    289      -1.2640      1.00000
    290      -1.2178      1.00000
    291      -1.1692      1.00000
    292      -1.1369      1.00000
    293      -1.1195      1.00000
    294      -1.1086      1.00000
    295      -1.0619      1.00000
    296      -1.0356      1.00000
    297      -0.9996      1.00000
    298      -0.9898      1.00000
    299      -0.9836      1.00000
    300      -0.9649      1.00000
    301      -0.9371      1.00000
    302      -0.9077      1.00000
    303      -0.8944      1.00000
    304      -0.8834      1.00000
    305      -0.8535      1.00000
    306      -0.8460      1.00000
    307      -0.8262      1.00000
    308      -0.8158      1.00000
    309      -0.8009      1.00000
    310      -0.7776      1.00000
    311      -0.7682      1.00000
    312      -0.7474      1.00000
    313      -0.7255      1.00000
    314      -0.7037      1.00000
    315      -0.6897      1.00000
    316      -0.6772      1.00000
    317      -0.6689      1.00000
    318      -0.6521      1.00000
    319      -0.6332      1.00000
    320      -0.6179      1.00000
    321      -0.5994      1.00000
    322      -0.5928      1.00000
    323      -0.5720      1.00000
    324      -0.5602      1.00000
    325      -0.5546      1.00000
    326      -0.5375      1.00000
    327      -0.5169      1.00000
    328      -0.4944      1.00000
    329      -0.4735      1.00000
    330      -0.4602      1.00000
    331      -0.4316      1.00000
    332      -0.4091      1.00000
    333      -0.3922      1.00000
    334      -0.3735      1.00000
    335      -0.3637      1.00000
    336      -0.3241      1.00000
    337      -0.2706      1.00000
    338      -0.2461      1.00000
    339      -0.2176      1.00000
    340      -0.1978      1.00000
    341      -0.1562      1.00000
    342      -0.1382      1.00000
    343      -0.0991      1.00000
    344      -0.0686      1.00000
    345      -0.0596      1.00000
    346      -0.0449      1.00000
    347      -0.0362      1.00000
    348      -0.0213      1.00000
    349      -0.0039      1.00000
    350       0.0037      1.00000
    351       0.0133      1.00000
    352       0.0241      1.00000
    353       0.0412      1.00000
    354       0.0677      1.00000
    355       0.0769      1.00000
    356       0.0895      1.00000
    357       0.0975      1.00000
    358       0.1189      1.00000
    359       0.1292      1.00000
    360       0.1550      1.00000
    361       0.1616      1.00000
    362       0.1825      1.00000
    363       0.2351      1.00000
    364       0.2610      1.00000
    365       0.2783      1.00000
    366       0.2941      1.00000
    367       0.3038      1.00000
    368       0.3088      1.00000
    369       0.3273      1.00000
    370       0.3432      1.00000
    371       0.3500      1.00000
    372       0.3564      1.00000
    373       0.3728      1.00000
    374       0.3766      1.00000
    375       0.3991      1.00000
    376       0.4230      1.00000
    377       0.4279      1.00000
    378       0.4428      1.00000
    379       0.4740      1.00000
    380       0.4881      1.00000
    381       0.4996      1.00000
    382       0.5391      1.00000
    383       0.5478      1.00000
    384       0.5689      1.00000
    385       0.5748      1.00000
    386       0.6029      1.00000
    387       0.6278      1.00000
    388       0.6924      1.00000
    389       0.7419      1.00000
    390       0.7748      1.00000
    391       0.7879      1.00000
    392       0.8001      1.00000
    393       0.8214      1.00000
    394       0.8288      1.00000
    395       0.8417      1.00000
    396       0.8635      1.00000
    397       0.8840      1.00000
    398       0.9052      1.00000
    399       0.9190      1.00000
    400       0.9347      1.00000
    401       0.9426      1.00000
    402       0.9579      1.00000
    403       0.9801      1.00000
    404       0.9845      1.00000
    405       1.0030      1.00000
    406       1.0303      1.00000
    407       1.0553      1.00000
    408       1.0697      1.00000
    409       1.0922      1.00000
    410       1.1109      1.00000
    411       1.1312      1.00000
    412       1.1453      1.00000
    413       1.1533      1.00000
    414       1.1834      1.00000
    415       1.1890      1.00000
    416       1.1977      1.00000
    417       1.2135      1.00000
    418       1.2310      1.00000
    419       1.2419      1.00000
    420       1.2615      1.00000
    421       1.2744      1.00000
    422       1.2791      1.00000
    423       1.3016      1.00000
    424       1.3216      1.00000
    425       1.3386      1.00000
    426       1.3475      1.00000
    427       1.3608      1.00000
    428       1.3720      1.00000
    429       1.3820      1.00000
    430       1.3882      1.00000
    431       1.4014      1.00000
    432       1.4150      1.00000
    433       1.4266      1.00000
    434       1.4353      1.00000
    435       1.4457      1.00000
    436       1.4683      1.00000
    437       1.4833      1.00000
    438       1.5103      1.00000
    439       1.5247      1.00000
    440       1.5326      1.00000
    441       1.5483      1.00000
    442       1.5643      1.00000
    443       1.5962      1.00000
    444       1.6225      1.00000
    445       1.6380      1.00000
    446       1.6451      1.00000
    447       1.6688      1.00000
    448       1.6888      1.00000
    449       1.7040      1.00000
    450       1.7492      1.00000
    451       1.7635      1.00000
    452       1.8052      1.00000
    453       1.8103      1.00000
    454       1.8451      1.00000
    455       1.8807      1.00000
    456       1.9512      1.00000
    457       2.0092      1.00000
    458       2.0299      1.00000
    459       2.1023      1.00000
    460       3.2538      1.00000
    461       4.3177      0.00000
    462       4.3648      0.00000
    463       4.3962      0.00000
    464       4.4034      0.00000
    465       4.4104      0.00000
    466       4.4174      0.00000
    467       4.4272      0.00000
    468       4.4370      0.00000
    469       4.4551      0.00000
    470       4.4609      0.00000
    471       4.4696      0.00000
    472       4.4775      0.00000
    473       4.4808      0.00000
    474       4.4872      0.00000
    475       4.4938      0.00000
    476       4.5023      0.00000
    477       4.5087      0.00000
    478       4.5186      0.00000
    479       4.5304      0.00000
    480       4.5466      0.00000
    481       4.5552      0.00000
    482       4.5608      0.00000
    483       4.5745      0.00000
    484       4.5826      0.00000
    485       4.5970      0.00000
    486       4.6039      0.00000
    487       4.6106      0.00000
    488       4.6163      0.00000
    489       4.6272      0.00000
    490       4.6320      0.00000
    491       4.6382      0.00000
    492       4.6435      0.00000
    493       4.6533      0.00000
    494       4.6586      0.00000
    495       4.6666      0.00000
    496       4.6725      0.00000
    497       4.6776      0.00000
    498       4.6841      0.00000
    499       4.6877      0.00000
    500       4.6941      0.00000
    501       4.7039      0.00000
    502       4.7081      0.00000
    503       4.7187      0.00000
    504       4.7247      0.00000
    505       4.7337      0.00000
    506       4.7474      0.00000
    507       4.7534      0.00000
    508       4.7610      0.00000
    509       4.7668      0.00000
    510       4.7743      0.00000
    511       4.7808      0.00000
    512       4.7850      0.00000
    513       4.7895      0.00000
    514       4.8064      0.00000
    515       4.8091      0.00000
    516       4.8215      0.00000
    517       4.8277      0.00000
    518       4.8323      0.00000
    519       4.8456      0.00000
    520       4.8489      0.00000
    521       4.8561      0.00000
    522       4.8632      0.00000
    523       4.8786      0.00000
    524       4.8894      0.00000
    525       4.9037      0.00000
    526       4.9048      0.00000
    527       4.9219      0.00000
    528       4.9274      0.00000
    529       4.9390      0.00000
    530       4.9459      0.00000
    531       4.9579      0.00000
    532       4.9665      0.00000
    533       4.9758      0.00000
    534       4.9784      0.00000
    535       4.9878      0.00000
    536       5.0048      0.00000
    537       5.0191      0.00000
    538       5.0374      0.00000
    539       5.0747      0.00000
    540       5.0822      0.00000
    541       5.0939      0.00000
    542       5.1076      0.00000
    543       5.1264      0.00000
    544       5.1439      0.00000
    545       5.1556      0.00000
    546       5.2133      0.00000
    547       5.2174      0.00000
    548       5.2243      0.00000
    549       5.2359      0.00000
    550       5.2764      0.00000
    551       5.2896      0.00000
    552       5.3413      0.00000
    553       5.4480      0.00000
    554       5.4666      0.00000
    555       5.4713      0.00000
    556       5.4910      0.00000
    557       5.5093      0.00000
    558       5.5306      0.00000
    559       5.5477      0.00000
    560       5.5682      0.00000
    561       5.5870      0.00000
    562       5.5997      0.00000
    563       5.6123      0.00000
    564       5.6219      0.00000
    565       5.6353      0.00000
    566       5.6607      0.00000
    567       5.6685      0.00000
    568       5.6867      0.00000
    569       5.7025      0.00000
    570       5.7214      0.00000
    571       5.7338      0.00000
    572       5.7417      0.00000
    573       5.7548      0.00000
    574       5.7752      0.00000
    575       5.7902      0.00000
    576       7.8271      0.00000
    577       7.9778      0.00000
    578       8.2307      0.00000
    579       8.5598      0.00000
    580       9.1497      0.00000
    581       9.2607      0.00000
    582       9.3101      0.00000
    583       9.3485      0.00000
    584       9.4569      0.00000
    585       9.8782      0.00000
    586       9.9109      0.00000
    587       9.9242      0.00000
    588       9.9477      0.00000
    589       9.9578      0.00000
    590      10.3956      0.00000
    591      10.4006      0.00000
    592      10.5779      0.00000
    593      10.6269      0.00000
    594      10.7459      0.00000
    595      10.7861      0.00000
    596      10.8261      0.00000
    597      10.8434      0.00000
    598      10.8495      0.00000
    599      10.8763      0.00000
    600      10.9129      0.00000
    601      10.9492      0.00000
    602      10.9655      0.00000
    603      11.0136      0.00000
    604      11.1410      0.00000
    605      11.1635      0.00000
    606      11.1953      0.00000
    607      11.2095      0.00000
    608      11.2390      0.00000
    609      11.2669      0.00000
    610      11.2937      0.00000
    611      11.2984      0.00000
    612      11.3177      0.00000
    613      11.3410      0.00000
    614      11.3505      0.00000
    615      11.3677      0.00000
    616      11.3829      0.00000
    617      11.4084      0.00000
    618      11.4246      0.00000
    619      11.4521      0.00000
    620      11.5004      0.00000
    621      11.5511      0.00000
    622      11.5646      0.00000
    623      11.5943      0.00000
    624      11.6184      0.00000
    625      11.6226      0.00000
    626      11.6490      0.00000
    627      11.6748      0.00000
    628      11.6857      0.00000
    629      11.7436      0.00000
    630      11.7701      0.00000
    631      11.7944      0.00000
    632      11.8140      0.00000
    633      11.8388      0.00000
    634      11.8908      0.00000
    635      11.9002      0.00000
    636      11.9205      0.00000
    637      11.9374      0.00000
    638      11.9548      0.00000
    639      11.9799      0.00000
    640      12.0010      0.00000
    641      12.0398      0.00000
    642      12.0552      0.00000
    643      12.0711      0.00000
    644      12.1013      0.00000
    645      12.1140      0.00000
    646      12.1468      0.00000
    647      12.1797      0.00000
    648      12.2006      0.00000
    649      12.2171      0.00000
    650      12.2423      0.00000
    651      12.2772      0.00000
    652      12.2870      0.00000
    653      12.3128      0.00000
    654      12.3408      0.00000
    655      12.3585      0.00000
    656      12.4072      0.00000
    657      12.4199      0.00000
    658      12.4341      0.00000
    659      12.4592      0.00000
    660      12.4801      0.00000
    661      12.4850      0.00000
    662      12.5365      0.00000
    663      12.5432      0.00000
    664      12.5885      0.00000
    665      12.6204      0.00000
    666      12.6619      0.00000
    667      12.6731      0.00000
    668      12.7578      0.00000
    669      12.7856      0.00000
    670      12.8128      0.00000
    671      12.8228      0.00000
    672      12.8639      0.00000
    673      12.9930      0.00000
    674      13.0472      0.00000
    675      13.0825      0.00000
    676      13.0972      0.00000
    677      13.1192      0.00000
    678      13.1357      0.00000
    679      13.1635      0.00000
    680      13.1799      0.00000
    681      13.1980      0.00000
    682      13.2374      0.00000
    683      13.2749      0.00000
    684      13.2970      0.00000
    685      13.3249      0.00000
    686      13.4775      0.00000
    687      13.5027      0.00000
    688      13.5336      0.00000
    689      13.5546      0.00000
    690      13.5738      0.00000
    691      13.6017      0.00000
    692      13.6467      0.00000
    693      13.6749      0.00000
    694      13.7022      0.00000
    695      13.7153      0.00000
    696      13.7991      0.00000


--------------------------------------------------------------------------------------------------------


 soft charge-density along one line, spin component           1
         0         1         2         3         4         5         6         7         8         9
 total charge-density along one line

 soft charge-density along one line, spin component           2
         0         1         2         3         4         5         6         7         8         9
 total charge-density along one line

 pseudopotential strength for first ion, spin component:           1
-53.009  -0.001   0.003  10.979   0.000  -0.001  -0.003  -0.013
 -0.001 -53.049   0.080   0.000  10.995  -0.027  -0.001  -0.003
  0.003   0.080 -52.993  -0.001  -0.027  10.976  -0.004  -0.001
 10.979   0.000  -0.001   4.835  -0.000   0.000   0.002   0.000
  0.000  10.995  -0.027  -0.000   4.832   0.005   0.001   0.000
 -0.001  -0.027  10.976   0.000   0.005   4.835   0.001   0.001
 -0.003  -0.001  -0.004   0.002   0.001   0.001 -10.996   0.074
 -0.013  -0.003  -0.001   0.000   0.000   0.001   0.074 -11.048
  0.002  -0.015   0.009  -0.001   0.004  -0.006  -0.002  -0.001
 -0.001   0.012  -0.017   0.001  -0.007   0.005   0.000   0.000
  0.003  -0.002  -0.000  -0.001   0.002   0.001   0.000  -0.000
 -0.003  -0.001  -0.004   0.002   0.001   0.001 -11.464   0.075
 -0.013  -0.003  -0.001   0.001   0.000   0.001   0.075 -11.518
  0.002  -0.015   0.008  -0.001   0.004  -0.005  -0.001  -0.001
 -0.001   0.012  -0.016   0.001  -0.007   0.005   0.000   0.000
  0.003  -0.002   0.000  -0.001   0.002   0.001   0.000  -0.000
  0.001   0.003  -0.000   0.000   0.001  -0.000  -0.000   0.000
  0.002   0.007  -0.001   0.001   0.004  -0.000  -0.001   0.000
 pseudopotential strength for first ion, spin component:           2
-49.238  -0.001   0.002   9.394   0.001  -0.001   0.007  -0.035
 -0.001 -49.260   0.075   0.001   9.402  -0.031   0.003  -0.007
  0.002   0.075 -49.199  -0.001  -0.031   9.377  -0.005   0.003
  9.394   0.001  -0.001   5.302   0.000  -0.000  -0.005   0.017
  0.001   9.402  -0.031   0.000   5.300  -0.002  -0.002   0.003
 -0.001  -0.031   9.377  -0.000  -0.002   5.298   0.002  -0.002
  0.007   0.003  -0.005  -0.005  -0.002   0.002  -3.635   0.275
 -0.035  -0.007   0.003   0.017   0.003  -0.002   0.275  -3.872
  0.001  -0.019  -0.020  -0.000   0.006   0.015  -0.001   0.018
  0.003  -0.021  -0.016  -0.002   0.016   0.004   0.006  -0.006
  0.004   0.010   0.007  -0.002  -0.006  -0.004  -0.009   0.014
  0.007   0.003  -0.004  -0.005  -0.002   0.002  -4.040   0.280
 -0.034  -0.007   0.003   0.017   0.003  -0.002   0.280  -4.281
  0.001  -0.018  -0.019  -0.000   0.007   0.015  -0.001   0.018
  0.003  -0.020  -0.016  -0.002   0.017   0.004   0.006  -0.007
  0.004   0.009   0.007  -0.002  -0.007  -0.004  -0.009   0.014
  0.002   0.008  -0.000   0.001   0.002  -0.000  -0.001   0.000
  0.004   0.018  -0.001   0.001   0.006  -0.001  -0.001   0.001
 total augmentation occupancy for first ion, spin component:           1
  1.986  -0.000   0.000  -0.052  -0.000   0.000  -0.008   0.013   0.000  -0.002  -0.001   0.008  -0.010  -0.000   0.002   0.001
 -0.000   1.986  -0.000  -0.000  -0.052   0.001  -0.002   0.002   0.002   0.016  -0.007   0.002  -0.002  -0.001  -0.015   0.006
  0.000  -0.000   1.986   0.000   0.001  -0.051   0.001  -0.002   0.014  -0.001  -0.001  -0.000   0.002  -0.013   0.001   0.000
 -0.052  -0.000   0.000   0.163  -0.001   0.001  -0.113   0.224   0.012  -0.034  -0.006   0.112  -0.218  -0.013   0.035   0.006
 -0.000  -0.052   0.001  -0.001   0.168   0.036  -0.033   0.028  -0.043   0.250  -0.144   0.033  -0.028   0.039  -0.258   0.146
  0.000   0.001  -0.051   0.001   0.036   0.199   0.002  -0.033   0.209  -0.050   0.001  -0.002   0.033  -0.221   0.046   0.003
 -0.008  -0.002   0.001  -0.113  -0.033   0.002   8.219  -2.133  -0.006  -0.060   0.036  -5.843   2.065   0.007   0.059  -0.036
  0.013   0.002  -0.002   0.224   0.028  -0.033  -2.133   9.976  -0.044   0.070  -0.028   2.066  -7.548   0.044  -0.069   0.028
  0.000   0.002   0.014   0.012  -0.043   0.209  -0.006  -0.044   6.732   0.030   0.027   0.006   0.044  -4.414  -0.024  -0.016
 -0.002   0.016  -0.001  -0.034   0.250  -0.050  -0.060   0.070   0.030  12.494   4.709   0.059  -0.069  -0.021 -10.086  -4.622
 -0.001  -0.007  -0.001  -0.006  -0.144   0.001   0.036  -0.028   0.027   4.709  10.871  -0.036   0.028  -0.014  -4.625  -8.467
  0.008   0.002  -0.000   0.112   0.033  -0.002  -5.843   2.066   0.006   0.059  -0.036   4.707  -2.044  -0.007  -0.060   0.037
 -0.010  -0.002   0.002  -0.218  -0.028   0.033   2.065  -7.548   0.044  -0.069   0.028  -2.044   6.399  -0.047   0.070  -0.029
 -0.000  -0.001  -0.013  -0.013   0.039  -0.221   0.007   0.044  -4.414  -0.021  -0.014  -0.007  -0.047   3.303   0.030   0.005
  0.002  -0.015   0.001   0.035  -0.258   0.046   0.059  -0.069  -0.024 -10.086  -4.625  -0.060   0.070   0.030   8.960   4.614
  0.001   0.006   0.000   0.006   0.146   0.003  -0.036   0.028  -0.016  -4.622  -8.467   0.037  -0.029   0.005   4.614   7.334
 -0.002  -0.007   0.001  -0.005  -0.020   0.003  -0.017   0.014   0.087  -0.622  -0.397   0.018  -0.015  -0.093   0.647   0.402
  0.001   0.003  -0.000   0.000   0.000   0.000  -0.000   0.000   0.006  -0.014  -0.000  -0.000   0.000  -0.002  -0.003  -0.006
 total augmentation occupancy for first ion, spin component:           2
 -0.004   0.000  -0.000  -0.013   0.000  -0.000   0.000  -0.003   0.000   0.000   0.000  -0.000   0.003   0.000  -0.000  -0.000
  0.000  -0.004  -0.000   0.000  -0.013  -0.001   0.000  -0.001  -0.002  -0.003   0.001  -0.000   0.001   0.002   0.004  -0.001
 -0.000  -0.000  -0.004  -0.000  -0.001  -0.014  -0.000   0.000  -0.003  -0.002   0.002   0.000  -0.000   0.004   0.001  -0.002
 -0.013   0.000  -0.000   0.017  -0.000  -0.000  -0.053   0.100   0.005  -0.019  -0.005   0.041  -0.074  -0.003   0.014   0.005
  0.000  -0.013  -0.001  -0.000   0.018   0.001  -0.018   0.017  -0.011   0.141  -0.059   0.013  -0.013   0.010  -0.097   0.037
 -0.000  -0.001  -0.014  -0.000   0.001   0.018   0.004  -0.018   0.116  -0.019  -0.013  -0.003   0.013  -0.075   0.016   0.007
  0.000   0.000  -0.000  -0.053  -0.018   0.004   7.490  -1.619  -0.003  -0.043   0.030  -4.813   1.410   0.002   0.037  -0.027
 -0.003  -0.001   0.000   0.100   0.017  -0.018  -1.619   8.727  -0.041   0.051  -0.029   1.409  -5.890   0.037  -0.044   0.027
  0.000  -0.002  -0.003   0.005  -0.011   0.116  -0.003  -0.041   6.290   0.127   0.032   0.002   0.037  -3.770  -0.118  -0.031
  0.000  -0.003  -0.002  -0.019   0.141  -0.019  -0.043   0.051   0.127  10.231   3.345   0.037  -0.045  -0.120  -7.224  -2.937
  0.000   0.001   0.002  -0.005  -0.059  -0.013   0.030  -0.029   0.032   3.345   9.236  -0.027   0.027  -0.032  -2.935  -6.355
 -0.000  -0.000   0.000   0.041   0.013  -0.003  -4.813   1.409   0.002   0.037  -0.027   3.175  -1.172  -0.001  -0.030   0.022
  0.003   0.001  -0.000  -0.074  -0.013   0.013   1.410  -5.890   0.037  -0.045   0.027  -1.172   4.063  -0.030   0.037  -0.022
  0.000   0.002   0.004  -0.003   0.010  -0.075   0.002   0.037  -3.770  -0.120  -0.032  -0.001  -0.030   2.308   0.098   0.030
 -0.000   0.004   0.001   0.014  -0.097   0.016   0.037  -0.044  -0.118  -7.224  -2.935  -0.030   0.037   0.098   5.229   2.477
 -0.000  -0.001  -0.002   0.005   0.037   0.007  -0.027   0.027  -0.031  -2.937  -6.355   0.022  -0.022   0.030   2.477   4.491
  0.000   0.001  -0.000   0.000  -0.002   0.001  -0.005   0.006   0.022  -0.204  -0.151   0.003  -0.004  -0.015   0.148   0.116
 -0.000  -0.000   0.000  -0.000  -0.001   0.000  -0.001   0.001   0.010  -0.044  -0.019   0.001  -0.001  -0.006   0.033   0.017


------------------------ aborting loop because EDIFF is reached ----------------------------------------





 total charge

# of ion       s       p       d       tot
------------------------------------------
    1        0.271   6.325   5.547  12.143
    2        0.272   6.322   5.550  12.143
    3        0.271   6.324   5.548  12.143
    4        0.272   6.325   5.546  12.142
    5        0.272   6.326   5.548  12.146
    6        0.272   6.325   5.546  12.144
    7        0.269   6.318   5.541  12.128
    8        0.271   6.322   5.544  12.137
    9        0.274   6.327   5.563  12.164
   10        0.271   6.323   5.546  12.140
   11        0.272   6.325   5.548  12.144
   12        0.201   6.204   5.931  12.336
   13        0.272   6.326   5.549  12.148
   14        0.272   6.326   5.548  12.146
   15        0.271   6.324   5.547  12.142
   16        0.277   6.335   5.555  12.166
   17        0.270   6.321   5.544  12.135
   18        0.271   6.324   5.546  12.140
   19        0.271   6.324   5.545  12.140
   20        0.272   6.326   5.547  12.145
   21        0.272   6.325   5.547  12.144
   22        0.271   6.323   5.545  12.140
   23        0.271   6.323   5.545  12.139
   24        0.271   6.322   5.545  12.138
   25        1.567   3.603   0.000   5.171
   26        1.564   3.597   0.000   5.161
   27        1.567   3.604   0.000   5.170
   28        1.568   3.602   0.000   5.169
   29        1.565   3.598   0.000   5.163
   30        1.564   3.599   0.000   5.164
   31        1.564   3.594   0.000   5.158
   32        1.566   3.597   0.000   5.163
   33        1.564   3.570   0.000   5.134
   34        1.564   3.584   0.000   5.148
   35        1.565   3.568   0.000   5.133
   36        1.565   3.566   0.000   5.131
   37        1.566   3.577   0.000   5.143
   38        1.564   3.569   0.000   5.133
   39        1.563   3.571   0.000   5.134
   40        1.565   3.570   0.000   5.135
   41        1.568   3.604   0.000   5.171
   42        1.569   3.605   0.000   5.174
   43        1.568   3.602   0.000   5.170
   44        1.568   3.603   0.000   5.170
   45        1.565   3.597   0.000   5.162
   46        1.565   3.600   0.000   5.165
   47        1.566   3.598   0.000   5.164
   48        1.565   3.599   0.000   5.164
   49        1.564   3.569   0.000   5.133
   50        1.564   3.567   0.000   5.131
   51        1.564   3.569   0.000   5.134
   52        1.564   3.567   0.000   5.130
   53        1.565   3.568   0.000   5.132
   54        1.564   3.568   0.000   5.133
   55        1.565   3.567   0.000   5.132
   56        1.564   3.573   0.000   5.137
   57        1.566   3.599   0.000   5.166
   58        1.567   3.602   0.000   5.170
   59        1.567   3.602   0.000   5.169
   60        1.566   3.622   0.000   5.188
   61        1.561   3.623   0.000   5.184
   62        1.564   3.599   0.000   5.163
   63        1.565   3.600   0.000   5.165
   64        1.570   3.593   0.000   5.164
   65        1.564   3.565   0.000   5.128
   66        1.564   3.569   0.000   5.133
   67        1.565   3.582   0.000   5.148
   68        1.565   3.584   0.000   5.149
   69        1.565   3.568   0.000   5.132
   70        1.563   3.582   0.000   5.145
   71        1.563   3.569   0.000   5.132
   72        1.565   3.561   0.000   5.125
   73        1.569   3.601   0.000   5.170
   74        1.567   3.605   0.000   5.172
   75        1.568   3.605   0.000   5.173
   76        1.571   3.613   0.000   5.184
   77        1.564   3.592   0.000   5.156
   78        1.565   3.598   0.000   5.163
   79        1.566   3.596   0.000   5.162
   80        1.566   3.606   0.000   5.172
   81        1.564   3.572   0.000   5.136
   82        1.564   3.570   0.000   5.134
   83        1.565   3.568   0.000   5.133
   84        1.564   3.569   0.000   5.133
   85        1.564   3.570   0.000   5.134
   86        1.563   3.568   0.000   5.131
   87        1.564   3.574   0.000   5.138
   88        1.564   3.569   0.000   5.133
   89        1.567   3.603   0.000   5.170
   90        1.568   3.603   0.000   5.170
   91        1.567   3.604   0.000   5.171
   92        1.568   3.602   0.000   5.170
   93        1.565   3.598   0.000   5.163
   94        1.565   3.598   0.000   5.162
   95        1.565   3.599   0.000   5.164
   96        1.565   3.597   0.000   5.163
   97        1.564   3.568   0.000   5.132
   98        1.564   3.570   0.000   5.134
   99        1.564   3.570   0.000   5.134
  100        1.564   3.570   0.000   5.134
  101        1.564   3.569   0.000   5.133
  102        1.564   3.569   0.000   5.133
  103        1.564   3.570   0.000   5.135
  104        1.564   3.568   0.000   5.133
  105        1.568   3.603   0.000   5.171
  106        1.568   3.603   0.000   5.171
  107        1.568   3.603   0.000   5.171
  108        1.567   3.603   0.000   5.171
  109        1.565   3.597   0.000   5.161
  110        1.565   3.598   0.000   5.162
  111        1.565   3.598   0.000   5.163
  112        1.565   3.598   0.000   5.164
  113        1.564   3.569   0.000   5.133
  114        1.564   3.569   0.000   5.134
  115        1.564   3.568   0.000   5.133
  116        1.564   3.567   0.000   5.132
  117        1.564   3.568   0.000   5.132
  118        1.564   3.568   0.000   5.133
  119        1.564   3.568   0.000   5.133
  120        1.564   3.570   0.000   5.134
  121        0.912   1.500   0.000   2.413
  122        0.915   1.505   0.000   2.420
  123        0.913   1.503   0.000   2.416
  124        0.913   1.501   0.000   2.413
  125        0.913   1.502   0.000   2.414
  126        0.912   1.496   0.000   2.409
  127        0.913   1.503   0.000   2.417
  128        0.912   1.500   0.000   2.413
  129        0.916   1.509   0.000   2.425
  130        0.912   1.501   0.000   2.413
  131        0.913   1.503   0.000   2.415
  132        0.914   1.514   0.000   2.428
  133        0.914   1.507   0.000   2.421
  134        0.913   1.500   0.000   2.412
  135        0.913   1.504   0.000   2.417
  136        0.914   1.503   0.000   2.417
  137        0.913   1.501   0.000   2.413
  138        0.913   1.501   0.000   2.414
  139        0.912   1.501   0.000   2.413
  140        0.913   1.501   0.000   2.414
  141        0.913   1.501   0.000   2.414
  142        0.913   1.501   0.000   2.414
  143        0.912   1.501   0.000   2.413
  144        0.912   1.500   0.000   2.412
  145        0.064   6.012   0.000   6.075
--------------------------------------------------
tot        178.692 537.960 133.522 850.174



 magnetization (x)

# of ion       s       p       d       tot
------------------------------------------
    1        0.023   0.031   4.301   4.356
    2        0.024   0.032   4.294   4.349
    3        0.023   0.031   4.300   4.355
    4        0.023   0.031   4.304   4.358
    5        0.023   0.032   4.302   4.357
    6        0.024   0.031   4.303   4.358
    7        0.023   0.032   4.303   4.358
    8        0.024   0.031   4.302   4.357
    9        0.023   0.032   4.282   4.338
   10        0.024   0.031   4.299   4.355
   11        0.023   0.032   4.302   4.356
   12        0.023   0.023   3.729   3.775
   13        0.023   0.032   4.300   4.356
   14        0.024   0.031   4.302   4.356
   15        0.023   0.032   4.301   4.356
   16        0.025   0.031   4.300   4.356
   17        0.024   0.031   4.302   4.357
   18        0.023   0.031   4.303   4.358
   19        0.023   0.031   4.303   4.358
   20        0.023   0.031   4.304   4.358
   21        0.023   0.031   4.303   4.357
   22        0.023   0.031   4.303   4.357
   23        0.023   0.031   4.303   4.357
   24        0.023   0.031   4.303   4.357
   25        0.007   0.095   0.000   0.102
   26        0.006   0.082   0.000   0.089
   27        0.007   0.098   0.000   0.105
   28        0.007   0.095   0.000   0.102
   29        0.008   0.102   0.000   0.109
   30        0.008   0.113   0.000   0.121
   31        0.007   0.080   0.000   0.087
   32        0.008   0.096   0.000   0.104
   33        0.011   0.127   0.000   0.138
   34        0.010   0.104   0.000   0.114
   35        0.011   0.128   0.000   0.139
   36        0.011   0.123   0.000   0.134
   37        0.009   0.102   0.000   0.111
   38        0.011   0.125   0.000   0.136
   39        0.011   0.131   0.000   0.142
   40        0.011   0.119   0.000   0.130
   41        0.007   0.096   0.000   0.103
   42        0.007   0.088   0.000   0.095
   43        0.007   0.098   0.000   0.105
   44        0.007   0.097   0.000   0.105
   45        0.008   0.101   0.000   0.109
   46        0.008   0.105   0.000   0.113
   47        0.007   0.093   0.000   0.100
   48        0.008   0.099   0.000   0.107
   49        0.011   0.128   0.000   0.139
   50        0.011   0.124   0.000   0.135
   51        0.011   0.125   0.000   0.136
   52        0.011   0.123   0.000   0.133
   53        0.011   0.125   0.000   0.136
   54        0.011   0.126   0.000   0.137
   55        0.011   0.126   0.000   0.138
   56        0.011   0.125   0.000   0.136
   57        0.007   0.105   0.000   0.112
   58        0.007   0.095   0.000   0.102
   59        0.007   0.097   0.000   0.104
   60        0.003   0.023   0.000   0.026
   61        0.008   0.090   0.000   0.098
   62        0.008   0.105   0.000   0.113
   63        0.008   0.095   0.000   0.103
   64        0.003   0.040   0.000   0.044
   65        0.011   0.131   0.000   0.142
   66        0.011   0.126   0.000   0.137
   67        0.009   0.102   0.000   0.112
   68        0.010   0.096   0.000   0.106
   69        0.011   0.130   0.000   0.141
   70        0.009   0.089   0.000   0.098
   71        0.012   0.134   0.000   0.145
   72        0.011   0.123   0.000   0.134
   73        0.007   0.097   0.000   0.104
   74        0.007   0.095   0.000   0.103
   75        0.007   0.094   0.000   0.101
   76        0.007   0.093   0.000   0.100
   77        0.007   0.096   0.000   0.104
   78        0.008   0.103   0.000   0.111
   79        0.007   0.093   0.000   0.100
   80        0.007   0.098   0.000   0.105
   81        0.011   0.124   0.000   0.136
   82        0.011   0.131   0.000   0.142
   83        0.011   0.125   0.000   0.136
   84        0.011   0.128   0.000   0.139
   85        0.011   0.124   0.000   0.135
   86        0.011   0.130   0.000   0.141
   87        0.011   0.128   0.000   0.140
   88        0.011   0.131   0.000   0.142
   89        0.007   0.097   0.000   0.105
   90        0.007   0.096   0.000   0.103
   91        0.007   0.096   0.000   0.103
   92        0.007   0.095   0.000   0.102
   93        0.008   0.101   0.000   0.108
   94        0.008   0.100   0.000   0.108
   95        0.008   0.099   0.000   0.107
   96        0.008   0.097   0.000   0.105
   97        0.011   0.128   0.000   0.140
   98        0.011   0.128   0.000   0.139
   99        0.011   0.126   0.000   0.137
  100        0.011   0.126   0.000   0.137
  101        0.011   0.127   0.000   0.138
  102        0.011   0.124   0.000   0.135
  103        0.011   0.129   0.000   0.140
  104        0.011   0.127   0.000   0.138
  105        0.007   0.095   0.000   0.103
  106        0.007   0.096   0.000   0.103
  107        0.007   0.097   0.000   0.104
  108        0.007   0.097   0.000   0.104
  109        0.008   0.102   0.000   0.109
  110        0.008   0.101   0.000   0.108
  111        0.008   0.099   0.000   0.106
  112        0.008   0.099   0.000   0.106
  113        0.011   0.128   0.000   0.139
  114        0.011   0.128   0.000   0.139
  115        0.011   0.126   0.000   0.137
  116        0.011   0.128   0.000   0.139
  117        0.011   0.127   0.000   0.139
  118        0.011   0.124   0.000   0.135
  119        0.011   0.128   0.000   0.139
  120        0.011   0.127   0.000   0.138
  121        0.004   0.013   0.000   0.017
  122        0.003   0.011   0.000   0.015
  123        0.004   0.013   0.000   0.017
  124        0.004   0.013   0.000   0.016
  125        0.004   0.013   0.000   0.016
  126        0.003   0.012   0.000   0.015
  127        0.004   0.013   0.000   0.017
  128        0.004   0.013   0.000   0.016
  129        0.002   0.009   0.000   0.012
  130        0.004   0.013   0.000   0.017
  131        0.004   0.013   0.000   0.017
  132        0.004   0.013   0.000   0.018
  133        0.004   0.013   0.000   0.017
  134        0.004   0.013   0.000   0.016
  135        0.004   0.013   0.000   0.017
  136        0.003   0.010   0.000   0.013
  137        0.004   0.013   0.000   0.017
  138        0.004   0.013   0.000   0.017
  139        0.004   0.013   0.000   0.017
  140        0.004   0.013   0.000   0.017
  141        0.004   0.013   0.000   0.017
  142        0.004   0.013   0.000   0.017
  143        0.004   0.013   0.000   0.017
  144        0.004   0.013   0.000   0.016
  145        0.000   0.000   0.000   0.001
--------------------------------------------------
tot          1.523  11.513 102.649 115.685

    FORLOC:  cpu time      0.0156: real time      0.0156
    FORNL :  cpu time      2.1266: real time      2.1391
    STRESS:  cpu time      6.3644: real time      6.4009
    FORCOR:  cpu time      0.1084: real time      0.1089
    OFIELD:  cpu time      0.0004: real time      0.0004

  FORCE on cell =-STRESS in cart. coord.  units (eV):
  Direction    XX          YY          ZZ          XY          YZ          ZX
  --------------------------------------------------------------------------------------
  Alpha Z  2952.23722  2952.23722  2952.23722
  Ewald  -22850.15477-18164.62160-21495.79359   184.95954   -43.96296  -197.10022
  Hartree 10019.83751 15495.33028 11936.06258   114.66254   -24.22552  -122.51144
  E(xc)   -5544.04637 -5547.21838 -5547.23971     0.10509    -0.05946    -0.17675
  Local   -4100.45199-14421.49113 -7346.01341  -298.93058    65.27434   316.49136
  n-local -1708.98357 -1832.12248 -1750.48934     1.43912     0.32335    -0.08838
  augment  3998.07517  3998.22898  3984.96438     1.69662     1.36809    -0.43849
  Kinetic 17243.80023 17527.22427 17274.34914    -1.81717    -0.12011    -0.73613
  Fock        0.00000     0.00000     0.00000     0.00000     0.00000     0.00000
  -------------------------------------------------------------------------------------
  Total      10.31342     7.56716     8.07727     2.11516    -1.40226    -4.56005
  in kB       9.58811     7.03498     7.50922     1.96640    -1.30365    -4.23936
  external pressure =        8.04 kB  Pullay stress =        0.00 kB


 VOLUME and BASIS-vectors are now :
 -----------------------------------------------------------------------------
  energy-cutoff  :      520.00
  volume of cell :     1723.38
      direct lattice vectors                 reciprocal lattice vectors
     9.962489075 -0.000069663 -0.000154526     0.100376522  0.000000553 -0.000000819
    -0.000097698 17.717656860 -0.000226836     0.000000395  0.056440872 -0.000000631
     0.000079674  0.000109170  9.763519320     0.000001589  0.000001311  0.102422084

  length of vectors
     9.962489076 17.717656862  9.763519321     0.100376522  0.056440872  0.102422084


 FORCES acting on ions:
    Electron-Ion                     Ewald-Force                    Non-Local-Force
 -----------------------------------------------------------------------------------------------
   -.363E+02 0.142E+02 0.264E+02   0.365E+02 -.146E+02 -.282E+02   -.183E+00 0.388E+00 0.190E+01
   0.109E+03 0.483E+02 0.453E+02   -.111E+03 -.486E+02 -.469E+02   0.216E+01 0.304E+00 0.162E+01
   -.123E+01 0.234E+02 -.222E+02   0.120E+01 -.226E+02 0.240E+02   0.238E-01 -.734E+00 -.184E+01
   -.454E+02 0.150E+02 -.260E+02   0.456E+02 -.146E+02 0.283E+02   -.213E+00 -.379E+00 -.233E+01
   -.430E+02 0.136E+02 0.401E+02   0.432E+02 -.139E+02 -.418E+02   -.171E+00 0.311E+00 0.178E+01
   0.644E+02 0.112E+02 0.380E+02   -.648E+02 -.116E+02 -.392E+02   0.323E+00 0.358E+00 0.124E+01
   0.382E+02 0.413E+02 -.473E+02   -.365E+02 -.400E+02 0.491E+02   -.170E+01 -.126E+01 -.175E+01
   -.465E+02 0.489E+01 -.307E+02   0.465E+02 -.519E+01 0.327E+02   -.292E-01 0.300E+00 -.194E+01
   0.114E+02 -.185E+02 -.131E+01   -.123E+02 0.196E+02 0.389E+00   0.873E+00 -.104E+01 0.910E+00
   0.609E+02 -.192E+02 0.317E+02   -.614E+02 0.195E+02 -.335E+02   0.470E+00 -.355E+00 0.183E+01
   0.244E+02 -.240E+02 -.400E+02   -.246E+02 0.229E+02 0.425E+02   0.243E+00 0.118E+01 -.246E+01
   -.119E+03 -.181E+02 -.129E+02   0.121E+03 0.188E+02 0.143E+02   -.194E+01 -.724E+00 -.141E+01
   0.667E+01 -.430E+01 0.820E+02   -.700E+01 0.513E+01 -.834E+02   0.339E+00 -.816E+00 0.143E+01
   0.594E+02 -.173E+02 0.449E+02   -.593E+02 0.177E+02 -.460E+02   -.124E+00 -.391E+00 0.113E+01
   0.498E+02 -.287E+02 -.341E+02   -.490E+02 0.276E+02 0.352E+02   -.800E+00 0.109E+01 -.108E+01
   -.907E+02 0.470E+00 -.446E+02   0.898E+02 -.850E-01 0.460E+02   0.946E+00 -.377E+00 -.136E+01
   -.483E+02 -.729E+01 0.349E+02   0.483E+02 0.734E+01 -.367E+02   -.156E-01 -.556E-01 0.177E+01
   0.446E+02 0.266E+01 0.297E+02   -.447E+02 -.293E+01 -.317E+02   0.109E+00 0.262E+00 0.196E+01
   0.439E+02 0.261E+00 -.318E+02   -.440E+02 -.452E+00 0.337E+02   0.417E-01 0.194E+00 -.187E+01
   -.367E+02 -.114E+02 -.225E+02   0.371E+02 0.107E+02 0.249E+02   -.376E+00 0.766E+00 -.247E+01
   -.447E+02 -.113E+02 0.334E+02   0.448E+02 0.111E+02 -.352E+02   -.678E-01 0.158E+00 0.174E+01
   0.466E+02 0.115E+01 0.340E+02   -.467E+02 -.146E+01 -.358E+02   0.748E-01 0.306E+00 0.186E+01
   0.457E+02 -.515E+00 -.344E+02   -.457E+02 0.257E+00 0.363E+02   -.752E-02 0.259E+00 -.190E+01
   -.463E+02 -.987E+01 -.339E+02   0.462E+02 0.968E+01 0.357E+02   0.128E+00 0.185E+00 -.179E+01
   0.195E+03 0.442E+01 -.592E+02   -.202E+03 -.429E+01 0.923E+02   0.650E+01 -.131E+00 -.332E+02
   -.166E+03 0.468E+02 -.350E+02   0.172E+03 -.473E+02 0.666E+02   -.618E+01 0.552E+00 -.316E+02
   -.196E+03 -.563E+01 0.537E+02   0.202E+03 0.665E+01 -.864E+02   -.613E+01 -.102E+01 0.327E+02
   0.191E+03 0.592E+01 0.580E+02   -.198E+03 -.607E+01 -.914E+02   0.679E+01 0.158E+00 0.334E+02
   -.568E+02 0.747E+01 -.166E+03   0.287E+02 -.741E+01 0.183E+03   0.281E+02 -.653E-01 -.171E+02
   0.721E+02 -.432E+01 -.165E+03   -.449E+02 0.491E+01 0.182E+03   -.272E+02 -.581E+00 -.167E+02
   0.167E+02 0.426E+02 0.125E+03   0.119E+02 -.413E+02 -.142E+03   -.286E+02 -.130E+01 0.163E+02
   -.500E+02 0.195E+01 0.170E+03   0.212E+02 -.192E+01 -.187E+03   0.289E+02 -.181E-01 0.173E+02
   0.102E+03 0.664E+02 0.647E+02   -.923E+02 -.895E+02 -.814E+02   -.979E+01 0.231E+02 0.167E+02
   0.151E+01 -.225E+02 -.439E+01   -.171E+02 0.434E+02 -.768E+01   0.155E+02 -.209E+02 0.121E+02
   -.103E+03 0.583E+02 -.801E+02   0.938E+02 -.808E+02 0.979E+02   0.923E+01 0.226E+02 -.179E+02
   0.876E+02 -.506E+02 -.657E+02   -.774E+02 0.740E+02 0.825E+02   -.102E+02 -.234E+02 -.169E+02
   -.112E+03 -.841E+02 -.352E+02   0.102E+03 0.111E+03 0.507E+02   0.100E+02 -.264E+02 -.155E+02
   0.991E+02 0.654E+02 -.651E+02   -.895E+02 -.884E+02 0.818E+02   -.960E+01 0.231E+02 -.167E+02
   0.105E+03 -.453E+02 0.752E+02   -.951E+02 0.668E+02 -.925E+02   -.957E+01 -.216E+02 0.173E+02
   -.893E+02 0.775E+02 0.645E+02   0.797E+02 -.100E+03 -.825E+02   0.960E+01 0.230E+02 0.180E+02
   0.197E+03 0.404E+01 -.570E+02   -.203E+03 -.417E+01 0.901E+02   0.650E+01 0.130E+00 -.331E+02
   -.195E+03 0.155E+02 -.696E+02   0.203E+03 -.161E+02 0.104E+03   -.772E+01 0.644E+00 -.345E+02
   -.198E+03 0.911E+01 0.572E+02   0.205E+03 -.953E+01 -.906E+02   -.711E+01 0.428E+00 0.334E+02
   0.192E+03 0.634E+01 0.592E+02   -.199E+03 -.655E+01 -.922E+02   0.685E+01 0.215E+00 0.330E+02
   -.571E+02 0.668E+01 -.169E+03   0.290E+02 -.678E+01 0.186E+03   0.281E+02 0.101E+00 -.171E+02
   0.638E+02 0.213E+01 -.171E+03   -.363E+02 -.222E+01 0.189E+03   -.275E+02 0.980E-01 -.177E+02
   0.439E+02 0.198E+02 0.185E+03   -.152E+02 -.212E+02 -.203E+03   -.287E+02 0.136E+01 0.182E+02
   -.544E+02 0.269E+01 0.166E+03   0.260E+02 -.273E+01 -.183E+03   0.284E+02 0.418E-01 0.170E+02
   0.104E+03 0.661E+02 0.627E+02   -.952E+02 -.892E+02 -.792E+02   -.928E+01 0.231E+02 0.165E+02
   -.844E+02 -.529E+02 0.753E+02   0.742E+02 0.759E+02 -.920E+02   0.102E+02 -.230E+02 0.167E+02
   -.102E+03 0.681E+02 -.668E+02   0.917E+02 -.913E+02 0.837E+02   0.993E+01 0.232E+02 -.169E+02
   0.944E+02 -.519E+02 -.685E+02   -.846E+02 0.748E+02 0.854E+02   -.976E+01 -.229E+02 -.169E+02
   -.104E+03 -.645E+02 -.672E+02   0.940E+02 0.887E+02 0.837E+02   0.100E+02 -.241E+02 -.165E+02
   0.974E+02 0.647E+02 -.651E+02   -.876E+02 -.877E+02 0.818E+02   -.986E+01 0.230E+02 -.167E+02
   0.101E+03 -.555E+02 0.710E+02   -.912E+02 0.785E+02 -.882E+02   -.100E+02 -.231E+02 0.172E+02
   -.885E+02 0.679E+02 0.611E+02   0.778E+02 -.908E+02 -.768E+02   0.107E+02 0.229E+02 0.157E+02
   0.220E+03 -.539E+01 -.459E+02   -.227E+03 0.585E+01 0.773E+02   0.717E+01 -.450E+00 -.314E+02
   -.193E+03 -.189E+02 -.599E+02   0.199E+03 0.192E+02 0.930E+02   -.677E+01 -.321E+00 -.331E+02
   -.189E+03 0.654E+01 0.551E+02   0.194E+03 -.749E+01 -.879E+02   -.564E+01 0.956E+00 0.328E+02
   0.979E+02 -.494E+02 0.516E+02   -.988E+02 0.523E+02 -.863E+02   0.845E+00 -.284E+01 0.347E+02
   -.516E+02 -.537E+02 -.788E+02   0.257E+02 0.572E+02 0.906E+02   0.260E+02 -.354E+01 -.118E+02
   0.631E+02 0.275E+01 -.160E+03   -.352E+02 -.337E+01 0.176E+03   -.279E+02 0.618E+00 -.161E+02
   0.474E+02 -.189E+02 0.164E+03   -.186E+02 0.198E+02 -.180E+03   -.287E+02 -.974E+00 0.165E+02
   -.566E+01 0.504E+01 0.170E+03   -.281E+02 -.640E+01 -.189E+03   0.337E+02 0.136E+01 0.190E+02
   0.112E+03 0.520E+02 0.647E+02   -.101E+03 -.729E+02 -.797E+02   -.118E+02 0.209E+02 0.150E+02
   -.981E+02 -.711E+02 0.598E+02   0.881E+02 0.940E+02 -.761E+02   0.999E+01 -.229E+02 0.163E+02
   -.108E+03 0.777E+02 -.378E+02   0.990E+02 -.104E+03 0.538E+02   0.941E+01 0.258E+02 -.161E+02
   0.489E+02 -.378E+02 -.943E+02   -.365E+02 0.587E+02 0.115E+03   -.123E+02 -.209E+02 -.209E+02
   -.103E+03 -.538E+02 -.820E+02   0.942E+02 0.760E+02 0.100E+03   0.891E+01 -.222E+02 -.182E+02
   0.893E+01 0.282E+02 -.629E+02   0.258E+01 -.493E+02 0.815E+02   -.115E+02 0.211E+02 -.187E+02
   0.115E+03 -.708E+02 0.535E+02   -.105E+03 0.927E+02 -.686E+02   -.993E+01 -.219E+02 0.151E+02
   -.884E+02 0.317E+02 0.716E+02   0.790E+02 -.547E+02 -.892E+02   0.943E+01 0.230E+02 0.176E+02
   0.211E+03 0.158E+01 -.659E+02   -.219E+03 -.140E+01 0.998E+02   0.792E+01 -.177E+00 -.339E+02
   -.192E+03 -.105E+02 -.538E+02   0.198E+03 0.102E+02 0.867E+02   -.602E+01 0.308E+00 -.329E+02
   -.194E+03 -.693E+01 0.563E+02   0.200E+03 0.727E+01 -.897E+02   -.681E+01 -.347E+00 0.334E+02
   0.196E+03 -.103E+01 0.579E+02   -.205E+03 0.558E-01 -.921E+02   0.903E+01 0.988E+00 0.342E+02
   -.567E+02 -.138E+01 -.191E+03   0.294E+02 0.161E+00 0.208E+03   0.273E+02 0.122E+01 -.178E+02
   0.617E+02 -.309E+01 -.172E+03   -.337E+02 0.324E+01 0.189E+03   -.280E+02 -.146E+00 -.174E+02
   0.432E+02 -.131E+02 0.170E+03   -.141E+02 0.135E+02 -.187E+03   -.292E+02 -.368E+00 0.175E+02
   -.597E+02 0.266E+01 0.173E+03   0.320E+02 -.306E+01 -.192E+03   0.278E+02 0.406E+00 0.190E+02
   0.104E+03 0.727E+02 0.595E+02   -.935E+02 -.962E+02 -.758E+02   -.104E+02 0.235E+02 0.163E+02
   -.102E+03 -.700E+02 0.671E+02   0.926E+02 0.928E+02 -.836E+02   0.949E+01 -.228E+02 0.166E+02
   -.104E+03 0.572E+02 -.759E+02   0.937E+02 -.808E+02 0.931E+02   0.100E+02 0.236E+02 -.173E+02
   0.944E+02 -.776E+02 -.629E+02   -.847E+02 0.101E+03 0.792E+02   -.971E+01 -.233E+02 -.163E+02
   -.102E+03 -.658E+02 -.688E+02   0.926E+02 0.888E+02 0.857E+02   0.968E+01 -.230E+02 -.168E+02
   0.861E+02 0.657E+02 -.712E+02   -.762E+02 -.881E+02 0.874E+02   -.995E+01 0.224E+02 -.162E+02
   0.114E+03 -.812E+02 0.517E+02   -.105E+03 0.106E+03 -.668E+02   -.897E+01 -.243E+02 0.151E+02
   -.926E+02 0.486E+02 0.685E+02   0.829E+02 -.710E+02 -.850E+02   0.971E+01 0.224E+02 0.165E+02
   0.191E+03 -.454E+01 -.568E+02   -.198E+03 0.439E+01 0.898E+02   0.648E+01 0.156E+00 -.329E+02
   -.194E+03 0.533E+00 -.589E+02   0.201E+03 -.363E+00 0.920E+02   -.657E+01 -.168E+00 -.331E+02
   -.193E+03 0.312E+00 0.581E+02   0.199E+03 -.249E+00 -.912E+02   -.649E+01 -.592E-01 0.331E+02
   0.194E+03 -.163E+01 0.596E+02   -.201E+03 0.185E+01 -.929E+02   0.660E+01 -.222E+00 0.333E+02
   -.567E+02 -.459E+01 -.169E+03   0.284E+02 0.474E+01 0.186E+03   0.284E+02 -.143E+00 -.170E+02
   0.554E+02 0.152E+01 -.167E+03   -.270E+02 -.146E+01 0.184E+03   -.284E+02 -.506E-01 -.169E+02
   0.538E+02 0.753E+00 0.166E+03   -.253E+02 -.478E+00 -.184E+03   -.285E+02 -.273E+00 0.170E+02
   -.507E+02 -.444E+01 0.170E+03   0.219E+02 0.503E+01 -.187E+03   0.288E+02 -.593E+00 0.171E+02
   0.104E+03 0.603E+02 0.646E+02   -.948E+02 -.835E+02 -.814E+02   -.953E+01 0.231E+02 0.168E+02
   -.101E+03 -.549E+02 0.697E+02   0.918E+02 0.775E+02 -.869E+02   0.955E+01 -.227E+02 0.171E+02
   -.101E+03 0.590E+02 -.685E+02   0.912E+02 -.820E+02 0.856E+02   0.961E+01 0.231E+02 -.170E+02
   0.101E+03 -.593E+02 -.700E+02   -.912E+02 0.820E+02 0.871E+02   -.956E+01 -.227E+02 -.171E+02
   -.100E+03 -.566E+02 -.715E+02   0.908E+02 0.793E+02 0.887E+02   0.960E+01 -.228E+02 -.172E+02
   0.984E+02 0.592E+02 -.708E+02   -.887E+02 -.825E+02 0.879E+02   -.976E+01 0.232E+02 -.171E+02
   0.101E+03 -.599E+02 0.686E+02   -.915E+02 0.825E+02 -.856E+02   -.964E+01 -.226E+02 0.170E+02
   -.101E+03 0.613E+02 0.663E+02   0.913E+02 -.844E+02 -.832E+02   0.967E+01 0.231E+02 0.169E+02
   0.195E+03 -.462E+01 -.579E+02   -.201E+03 0.470E+01 0.911E+02   0.647E+01 -.831E-01 -.332E+02
   -.194E+03 0.222E+01 -.577E+02   0.201E+03 -.204E+01 0.909E+02   -.652E+01 -.181E+00 -.331E+02
   -.193E+03 0.224E+00 0.571E+02   0.200E+03 -.156E+00 -.901E+02   -.666E+01 -.661E-01 0.331E+02
   0.192E+03 -.450E+01 0.572E+02   -.198E+03 0.453E+01 -.902E+02   0.664E+01 -.298E-01 0.330E+02
   -.559E+02 -.288E+01 -.166E+03   0.277E+02 0.248E+01 0.183E+03   0.281E+02 0.401E+00 -.170E+02
   0.562E+02 0.282E+00 -.167E+03   -.279E+02 -.188E+00 0.184E+03   -.283E+02 -.928E-01 -.170E+02
   0.530E+02 0.939E+00 0.168E+03   -.245E+02 -.924E+00 -.186E+03   -.286E+02 -.126E-01 0.172E+02
   -.539E+02 -.539E+01 0.166E+03   0.253E+02 0.545E+01 -.182E+03   0.286E+02 -.559E-01 0.170E+02
   0.102E+03 0.549E+02 0.702E+02   -.930E+02 -.778E+02 -.871E+02   -.941E+01 0.228E+02 0.169E+02
   -.101E+03 -.556E+02 0.729E+02   0.919E+02 0.781E+02 -.902E+02   0.957E+01 -.226E+02 0.173E+02
   -.100E+03 0.613E+02 -.662E+02   0.904E+02 -.845E+02 0.831E+02   0.974E+01 0.232E+02 -.169E+02
   0.102E+03 -.610E+02 -.705E+02   -.928E+02 0.838E+02 0.876E+02   -.930E+01 -.228E+02 -.172E+02
   -.100E+03 -.592E+02 -.673E+02   0.906E+02 0.822E+02 0.843E+02   0.966E+01 -.230E+02 -.169E+02
   0.997E+02 0.592E+02 -.626E+02   -.899E+02 -.825E+02 0.792E+02   -.985E+01 0.233E+02 -.166E+02
   0.100E+03 -.603E+02 0.730E+02   -.903E+02 0.830E+02 -.904E+02   -.972E+01 -.227E+02 0.174E+02
   -.102E+03 0.596E+02 0.680E+02   0.919E+02 -.826E+02 -.849E+02   0.965E+01 0.230E+02 0.169E+02
   0.684E+02 0.463E+01 0.452E+01   -.696E+02 -.488E+01 -.192E+01   0.127E+01 0.265E+00 -.272E+01
   -.538E+02 0.315E+02 -.253E+02   0.545E+02 -.315E+02 0.279E+02   -.755E+00 -.195E-01 -.270E+01
   -.702E+02 -.836E+00 0.375E+01   0.700E+02 0.145E+01 -.562E+01   0.224E+00 -.633E+00 0.195E+01
   0.628E+02 0.648E+01 -.202E+01   -.635E+02 -.631E+01 -.304E+00   0.692E+00 -.169E+00 0.243E+01
   0.678E+02 0.356E+01 0.357E+01   -.687E+02 -.330E+01 -.112E+01   0.910E+00 -.270E+00 -.256E+01
   -.578E+02 0.147E+02 0.130E+02   0.594E+02 -.145E+02 -.118E+02   -.166E+01 -.125E+00 -.126E+01
   -.676E+02 0.365E+01 -.400E+01   0.680E+02 -.349E+01 0.163E+01   -.456E+00 -.164E+00 0.247E+01
   0.625E+02 0.462E+01 -.471E+01   -.633E+02 -.460E+01 0.212E+01   0.785E+00 -.116E-01 0.270E+01
   0.822E+02 -.420E+01 -.211E+01   -.870E+02 0.409E+01 0.331E+01   0.509E+01 0.117E+00 -.125E+01
   -.647E+02 -.138E+02 0.299E+01   0.658E+02 0.137E+02 -.560E+00   -.111E+01 0.580E-01 -.255E+01
   -.674E+02 -.920E-01 0.425E+01   0.675E+02 -.654E+00 -.623E+01   -.373E-01 0.789E+00 0.206E+01
   0.203E+02 -.190E+02 0.207E+02   -.197E+02 0.194E+02 -.229E+02   -.620E+00 -.387E+00 0.223E+01
   0.720E+02 -.292E-01 -.395E+01   -.731E+02 -.177E+00 0.625E+01   0.115E+01 0.215E+00 -.240E+01
   -.661E+02 -.960E+01 0.484E+01   0.675E+02 0.981E+01 -.233E+01   -.147E+01 -.220E+00 -.263E+01
   -.662E+02 -.410E+01 -.727E+01   0.667E+02 0.376E+01 0.469E+01   -.552E+00 0.357E+00 0.269E+01
   0.528E+02 -.102E+02 -.248E+02   -.534E+02 0.103E+02 0.203E+02   0.603E+00 -.351E-01 0.468E+01
   0.667E+02 -.930E+00 0.351E+01   -.677E+02 0.979E+00 -.115E+01   0.110E+01 -.538E-01 -.247E+01
   -.666E+02 0.320E+01 0.333E+01   0.675E+02 -.325E+01 -.873E+00   -.923E+00 0.437E-01 -.257E+01
   -.663E+02 0.796E+00 -.464E+01   0.671E+02 -.839E+00 0.217E+01   -.759E+00 0.473E-01 0.258E+01
   0.645E+02 -.219E+01 -.510E+01   -.653E+02 0.207E+01 0.271E+01   0.780E+00 0.123E+00 0.250E+01
   0.667E+02 -.321E+01 0.531E+01   -.676E+02 0.332E+01 -.275E+01   0.985E+00 -.119E+00 -.267E+01
   -.667E+02 0.147E+01 0.454E+01   0.676E+02 -.149E+01 -.208E+01   -.989E+00 0.238E-01 -.258E+01
   -.658E+02 0.587E+00 -.388E+01   0.665E+02 -.659E+00 0.144E+01   -.743E+00 0.765E-01 0.255E+01
   0.663E+02 -.167E+01 -.352E+01   -.670E+02 0.163E+01 0.918E+00   0.680E+00 0.417E-01 0.273E+01
   -.183E+02 -.632E+01 0.328E+01   0.198E+02 0.646E+01 -.290E+01   -.142E+01 -.513E+00 -.457E+00
 -----------------------------------------------------------------------------------------------
   -.405E+01 0.168E+01 0.218E+01   0.469E-12 0.204E-11 0.326E-12   0.409E+01 -.169E+01 -.219E+01


 POSITION                                       TOTAL-FORCE (eV/Angst)
 -----------------------------------------------------------------------------------
      2.72340      1.43908      4.68751        -0.005063     -0.008265      0.005402
      2.20618      4.37951      2.24132        -0.016279      0.006596      0.007320
      7.21784      4.44172      0.18635        -0.001176      0.011403     -0.006747
      7.71023      1.46079      2.64065        -0.002259      0.005133     -0.001862
      2.73467      1.45041      9.55965        -0.000894      0.001520      0.003060
      2.22529      4.40713      7.16307        -0.007280      0.011250      0.010005
      7.22795      4.44077      5.09280        -0.014512      0.006369      0.007110
      7.70525      1.47172      7.52512        -0.002170      0.000190      0.000661
      2.70290      7.42935      4.77030         0.010013      0.012454     -0.016092
      2.26714     10.36060      2.22039         0.009112     -0.006635     -0.005381
      7.23910     10.36210      0.20032         0.008101      0.001363     -0.000169
      7.83807      7.43304      2.71901         0.010916      0.015859      0.041320
      2.74330      7.42532      9.53248         0.007478      0.017144      0.014866
      2.24913     10.37609      7.12484         0.002061     -0.003495     -0.010875
      7.25406     10.34839      5.08535        -0.001258      0.002906     -0.001410
      7.75111      7.40378      7.48232        -0.009007      0.009385     -0.001825
      2.73904     13.28621      4.66743         0.004711     -0.005726     -0.007858
      2.25003     16.23500      2.23086        -0.000551     -0.001215     -0.002754
      7.22649     16.24324      0.20354         0.000067      0.002112     -0.000670
      7.72343     13.30921      2.64355         0.005142     -0.001025     -0.002896
      2.73926     13.30304      9.55000         0.006035     -0.004203     -0.008333
      2.24259     16.23535      7.11365         0.000849     -0.001602     -0.001661
      7.22609     16.24095      5.08774         0.002423     -0.000254     -0.003321
      7.71413     13.29487      7.52463         0.004627      0.000189     -0.000566
      1.20555      1.46038      3.49072        -0.006213     -0.002341      0.004420
      3.81007      4.46176      1.09313         0.006737      0.006481      0.014597
      8.71485      4.42319      1.40216         0.000630     -0.002459     -0.007709
      6.17411      1.46834      3.82041        -0.002707      0.000800     -0.000987
      4.43171      1.47447      0.74072        -0.000160      0.003688      0.001476
      0.52715      4.39987      3.17040        -0.015162      0.008846      0.008058
      5.47366      4.46853      4.14322        -0.018112      0.008493     -0.005324
      9.41739      1.46164      1.68465        -0.002369      0.006411      0.001531
      1.69216      0.26924      1.26050        -0.001910      0.004143      0.001048
      3.21012      5.58546      3.81151        -0.019265     -0.008473      0.017412
      8.27506      3.16692      3.61253        -0.013138      0.012456      0.000119
      6.65996      2.67782      1.16869        -0.000526      0.004399     -0.000573
      8.25744      5.55570      3.66599        -0.026017      0.013996     -0.023022
      6.66515      0.27597      1.17046         0.000810      0.003827     -0.000022
      1.68946      2.66517      1.27013        -0.002193      0.004537      0.007280
      3.27489      3.19779      3.73729        -0.011918     -0.006336      0.012101
      1.20685      1.46246      8.38003        -0.002451      0.002038      0.004261
      3.77142      4.36582      6.00142         0.003407     -0.012551      0.018181
      8.75795      4.41142      6.27248        -0.005593      0.006432     -0.008150
      6.18219      1.46987      8.70642        -0.001925      0.001168     -0.000093
      4.43059      1.46569      5.62415        -0.001292     -0.004833      0.001274
      0.53150      4.41535      8.08853        -0.008410      0.005405     -0.004324
      5.50948      4.39720      9.00074        -0.003998     -0.000085      0.006164
      9.40934      1.46804      6.58778        -0.001284      0.002089      0.001354
      1.67928      0.27128      6.14677        -0.000109      0.003615      0.003483
      3.28310      5.62954      8.61521         0.001424      0.005988      0.013389
      8.25841      3.22388      8.49832        -0.004516      0.003327     -0.005942
      6.65637      2.68191      6.04165        -0.006204      0.005536     -0.003627
      8.27139      5.62907      8.48559        -0.009636      0.003092     -0.007669
      6.67018      0.28065      6.05304         0.001681      0.004361      0.000039
      1.67725      2.67070      6.16112        -0.001708      0.004251      0.006898
      3.25545      3.23533      8.64387        -0.009022      0.006126      0.015504
      1.25424      7.40820      3.50772        -0.009170      0.005568      0.001827
      3.79368     10.37361      1.03605         0.002319      0.007955     -0.003762
      8.75093     10.37594      1.40911         0.010472      0.007925     -0.004787
      6.12551      7.42032      3.85040        -0.054335      0.002516     -0.003411
      4.48850      7.47273      0.62798         0.006674      0.006553      0.043938
      0.57781     10.38183      3.16412         0.002448      0.000865      0.002710
      5.54098     10.36750      4.15289         0.001540      0.007360     -0.001773
      9.52639      7.35387      1.62306         0.003855     -0.008992     -0.012763
      1.82718      6.19060      1.32193         0.002606     -0.003049      0.005293
      3.29150     11.52175      3.70189         0.004907      0.011569     -0.001338
      8.30971      9.24445      3.67923        -0.007340     -0.000689     -0.015638
      6.70613      8.62504      1.05859         0.018442      0.009644      0.003026
      8.32366     11.62975      3.62033         0.000979     -0.002943      0.001288
      6.61036      6.18480      1.06664         0.013960      0.006970     -0.007226
      1.78509      8.58418      1.28035        -0.000646     -0.000551     -0.002637
      3.34073      9.11227      3.71171        -0.010212      0.017366      0.003279
      1.18131      7.39428      8.40812         0.015241      0.004447      0.000781
      3.76243     10.33451      5.93111         0.004763      0.010401     -0.000043
      8.77584     10.36792      6.27356        -0.001591     -0.003155     -0.006290
      6.20482      7.40463      8.59246        -0.004993      0.015086      0.011930
      4.42468      7.37098      5.68409        -0.015488      0.002789      0.032997
      0.55961     10.36716      8.07508         0.000630      0.000055     -0.008935
      5.53452     10.37533      8.98506         0.005411      0.003548      0.002315
      9.43346      7.37499      6.55554         0.002445     -0.001935      0.007867
      1.70153      6.17987      6.20218         0.001118     -0.001856      0.000531
      3.29796     11.56675      8.57421         0.001221      0.001184     -0.002454
      8.30088      9.14867      8.48252        -0.001663      0.002637     -0.003685
      6.67696      8.59772      6.05987        -0.004453     -0.000499     -0.006630
      8.28296     11.55443      8.50214         0.003975      0.000761     -0.003511
      6.68212      6.19370      6.04696        -0.010233      0.002395     -0.005140
      1.68836      8.58530      6.18468         0.001919     -0.000533     -0.004296
      3.28956      9.17352      8.57380         0.008683      0.000617      0.001096
      1.22279     13.29770      3.47710        -0.000952      0.002782     -0.001411
      3.77407     16.24817      1.04395        -0.000781      0.002690     -0.000465
      8.74888     16.24968      1.38989         0.000643      0.003047     -0.001490
      6.19041     13.30756      3.82481         0.003893      0.001945     -0.000009
      4.43625     13.30854      0.73702         0.002626      0.001245     -0.002591
      0.54779     16.24798      3.17752         0.000808      0.002323     -0.001760
      5.52696     16.24696      4.13824         0.000401      0.002527      0.000009
      9.42502     13.32222      1.68043         0.001135      0.000001     -0.001309
      1.69467     12.10908      1.24569         0.000854     -0.001578     -0.000064
      3.29097     17.43566      3.70211        -0.001076     -0.000146     -0.000391
      8.27810     15.05110      3.61988         0.001041      0.001356     -0.002144
      6.66725     14.50656      1.17324         0.002163      0.001597     -0.000664
      8.27661     17.44729      3.61781         0.000582      0.002312     -0.001648
      6.66731     12.10696      1.17655         0.003523      0.002099     -0.000151
      1.69689     14.50638      1.25552         0.001831     -0.000310     -0.002198
      3.29885     15.03865      3.70134         0.002112     -0.000029     -0.003388
      1.21381     13.30770      8.36545         0.002496     -0.002132     -0.003393
      3.76772     16.24336      5.92989        -0.001601      0.000426     -0.001866
      8.74858     16.24707      6.27069         0.000859      0.001564     -0.000760
      6.19418     13.30355      8.71068         0.002603      0.000975     -0.000655
      4.43630     13.28443      5.61609         0.002433      0.003880      0.000151
      0.54338     16.24707      8.06146         0.000566      0.001438      0.000010
      5.52895     16.24545      9.01176        -0.000296      0.002489      0.000499
      9.41590     13.30586      6.57694         0.001403      0.001286     -0.003466
      1.68645     12.10524      6.13860         0.000604     -0.000787     -0.002613
      3.29634     17.44426      8.57958         0.000244      0.002325     -0.000116
      8.27382     15.04694      8.49811         0.001297      0.001129     -0.000587
      6.65999     14.50274      6.05644         0.002744      0.000795     -0.000393
      8.27182     17.44560      8.49803        -0.000039      0.001546     -0.000850
      6.67969     12.10591      6.05544         0.000874      0.000992     -0.000346
      1.68590     14.50215      6.13514         0.001399     -0.000347     -0.000751
      3.29486     15.04857      8.57845         0.000428      0.001636     -0.000595
      0.94961      1.45985      1.98672        -0.002533      0.002728      0.003327
      3.98280      4.38090      4.49864        -0.017759     -0.007944      0.014074
      8.97974      4.39111      2.90488        -0.009487      0.006935     -0.006992
      5.93279      1.47679      0.44935        -0.000411      0.003132      0.000564
      0.94574      1.46865      6.87653        -0.001563      0.004266      0.003942
      4.02242      4.43183      9.33095        -0.004470      0.004071      0.010941
      8.99568      4.42065      7.77952        -0.005902      0.004812     -0.004603
      5.93079      1.47369      5.32666        -0.002800     -0.000079     -0.001044
      1.01795      7.38597      1.99225        -0.004562     -0.001326      0.000841
      4.04168     10.33476      4.43020         0.000677      0.007802     -0.004109
      9.03026     10.40603      2.91000         0.008071      0.003425     -0.005399
      6.00845      7.43943      0.33328         0.004127      0.017167      0.004223
      0.95459      7.38094      6.90063         0.010175     -0.000366      0.001017
      4.04180     10.36874      9.29306         0.004296      0.004318      0.000122
      9.02161     10.35892      7.77836         0.002005     -0.000284     -0.003127
      5.92405      7.40040      5.35215        -0.023637      0.003697     -0.008171
      0.95971     13.30531      1.97291         0.002723     -0.001213     -0.002745
      4.02770     16.23796      4.42601         0.000687     -0.000385     -0.001796
      9.00880     16.24829      2.89370         0.000276      0.001884     -0.001859
      5.93746     13.30409      0.45220         0.003002      0.001320     -0.000778
      0.95284     13.30580      6.86209         0.001285     -0.000778     -0.002558
      4.03047     16.24481      9.30282         0.000266      0.001994     -0.000659
      9.00445     16.24587      7.77546         0.000317      0.000929     -0.000633
      5.93887     13.29719      5.32931         0.001787      0.001996     -0.000982
      4.76495      6.37021      2.50724         0.155197     -0.367063     -0.071227
 -----------------------------------------------------------------------------------
    total drift:                                0.047577     -0.012490     -0.005935


--------------------------------------------------------------------------------------------------------



  FREE ENERGIE OF THE ION-ELECTRON SYSTEM (eV)
  ---------------------------------------------------
  free  energy   TOTEN  =     -1020.18219782 eV

  energy  without entropy=    -1020.18219782  energy(sigma->0) =    -1020.18219782



--------------------------------------------------------------------------------------------------------


    POTLOK:  cpu time      0.5570: real time      0.5588


--------------------------------------------------------------------------------------------------------




--------------------------------------------------------------------------------------------------------


 writing wavefunctions
     LOOP+:  cpu time    144.9112: real time    173.9664
    4ORBIT:  cpu time      0.0000: real time      0.0000



 total charge

# of ion       s       p       d       tot
------------------------------------------
    1        0.271   6.325   5.547  12.143
    2        0.272   6.322   5.550  12.143
    3        0.271   6.324   5.548  12.143
    4        0.272   6.325   5.546  12.142
    5        0.272   6.326   5.548  12.146
    6        0.272   6.325   5.546  12.144
    7        0.269   6.318   5.541  12.128
    8        0.271   6.322   5.544  12.137
    9        0.274   6.327   5.563  12.164
   10        0.271   6.323   5.546  12.140
   11        0.272   6.325   5.548  12.144
   12        0.201   6.204   5.931  12.336
   13        0.272   6.326   5.549  12.148
   14        0.272   6.326   5.548  12.146
   15        0.271   6.324   5.547  12.142
   16        0.277   6.335   5.555  12.166
   17        0.270   6.321   5.544  12.135
   18        0.271   6.324   5.546  12.140
   19        0.271   6.324   5.545  12.140
   20        0.272   6.326   5.547  12.145
   21        0.272   6.325   5.547  12.144
   22        0.271   6.323   5.545  12.140
   23        0.271   6.323   5.545  12.139
   24        0.271   6.322   5.545  12.138
   25        1.567   3.603   0.000   5.171
   26        1.564   3.597   0.000   5.161
   27        1.567   3.604   0.000   5.170
   28        1.568   3.602   0.000   5.169
   29        1.565   3.598   0.000   5.163
   30        1.564   3.599   0.000   5.164
   31        1.564   3.594   0.000   5.158
   32        1.566   3.597   0.000   5.163
   33        1.564   3.570   0.000   5.134
   34        1.564   3.584   0.000   5.148
   35        1.565   3.568   0.000   5.133
   36        1.565   3.566   0.000   5.131
   37        1.566   3.577   0.000   5.143
   38        1.564   3.569   0.000   5.133
   39        1.563   3.571   0.000   5.134
   40        1.565   3.570   0.000   5.135
   41        1.568   3.604   0.000   5.171
   42        1.569   3.605   0.000   5.174
   43        1.568   3.602   0.000   5.170
   44        1.568   3.603   0.000   5.170
   45        1.565   3.597   0.000   5.162
   46        1.565   3.600   0.000   5.165
   47        1.566   3.598   0.000   5.164
   48        1.565   3.599   0.000   5.164
   49        1.564   3.569   0.000   5.133
   50        1.564   3.567   0.000   5.131
   51        1.564   3.569   0.000   5.134
   52        1.564   3.567   0.000   5.130
   53        1.565   3.568   0.000   5.132
   54        1.564   3.568   0.000   5.133
   55        1.565   3.567   0.000   5.132
   56        1.564   3.573   0.000   5.137
   57        1.566   3.599   0.000   5.166
   58        1.567   3.602   0.000   5.170
   59        1.567   3.602   0.000   5.169
   60        1.566   3.622   0.000   5.188
   61        1.561   3.623   0.000   5.184
   62        1.564   3.599   0.000   5.163
   63        1.565   3.600   0.000   5.165
   64        1.570   3.593   0.000   5.164
   65        1.564   3.565   0.000   5.128
   66        1.564   3.569   0.000   5.133
   67        1.565   3.582   0.000   5.148
   68        1.565   3.584   0.000   5.149
   69        1.565   3.568   0.000   5.132
   70        1.563   3.582   0.000   5.145
   71        1.563   3.569   0.000   5.132
   72        1.565   3.561   0.000   5.125
   73        1.569   3.601   0.000   5.170
   74        1.567   3.605   0.000   5.172
   75        1.568   3.605   0.000   5.173
   76        1.571   3.613   0.000   5.184
   77        1.564   3.592   0.000   5.156
   78        1.565   3.598   0.000   5.163
   79        1.566   3.596   0.000   5.162
   80        1.566   3.606   0.000   5.172
   81        1.564   3.572   0.000   5.136
   82        1.564   3.570   0.000   5.134
   83        1.565   3.568   0.000   5.133
   84        1.564   3.569   0.000   5.133
   85        1.564   3.570   0.000   5.134
   86        1.563   3.568   0.000   5.131
   87        1.564   3.574   0.000   5.138
   88        1.564   3.569   0.000   5.133
   89        1.567   3.603   0.000   5.170
   90        1.568   3.603   0.000   5.170
   91        1.567   3.604   0.000   5.171
   92        1.568   3.602   0.000   5.170
   93        1.565   3.598   0.000   5.163
   94        1.565   3.598   0.000   5.162
   95        1.565   3.599   0.000   5.164
   96        1.565   3.597   0.000   5.163
   97        1.564   3.568   0.000   5.132
   98        1.564   3.570   0.000   5.134
   99        1.564   3.570   0.000   5.134
  100        1.564   3.570   0.000   5.134
  101        1.564   3.569   0.000   5.133
  102        1.564   3.569   0.000   5.133
  103        1.564   3.570   0.000   5.135
  104        1.564   3.568   0.000   5.133
  105        1.568   3.603   0.000   5.171
  106        1.568   3.603   0.000   5.171
  107        1.568   3.603   0.000   5.171
  108        1.567   3.603   0.000   5.171
  109        1.565   3.597   0.000   5.161
  110        1.565   3.598   0.000   5.162
  111        1.565   3.598   0.000   5.163
  112        1.565   3.598   0.000   5.164
  113        1.564   3.569   0.000   5.133
  114        1.564   3.569   0.000   5.134
  115        1.564   3.568   0.000   5.133
  116        1.564   3.567   0.000   5.132
  117        1.564   3.568   0.000   5.132
  118        1.564   3.568   0.000   5.133
  119        1.564   3.568   0.000   5.133
  120        1.564   3.570   0.000   5.134
  121        0.912   1.500   0.000   2.413
  122        0.915   1.505   0.000   2.420
  123        0.913   1.503   0.000   2.416
  124        0.913   1.501   0.000   2.413
  125        0.913   1.502   0.000   2.414
  126        0.912   1.496   0.000   2.409
  127        0.913   1.503   0.000   2.417
  128        0.912   1.500   0.000   2.413
  129        0.916   1.509   0.000   2.425
  130        0.912   1.501   0.000   2.413
  131        0.913   1.503   0.000   2.415
  132        0.914   1.514   0.000   2.428
  133        0.914   1.507   0.000   2.421
  134        0.913   1.500   0.000   2.412
  135        0.913   1.504   0.000   2.417
  136        0.914   1.503   0.000   2.417
  137        0.913   1.501   0.000   2.413
  138        0.913   1.501   0.000   2.414
  139        0.912   1.501   0.000   2.413
  140        0.913   1.501   0.000   2.414
  141        0.913   1.501   0.000   2.414
  142        0.913   1.501   0.000   2.414
  143        0.912   1.501   0.000   2.413
  144        0.912   1.500   0.000   2.412
  145        0.064   6.012   0.000   6.075
--------------------------------------------------
tot        178.692 537.960 133.522 850.174



 magnetization (x)

# of ion       s       p       d       tot
------------------------------------------
    1        0.023   0.031   4.301   4.356
    2        0.024   0.032   4.294   4.349
    3        0.023   0.031   4.300   4.355
    4        0.023   0.031   4.304   4.358
    5        0.023   0.032   4.302   4.357
    6        0.024   0.031   4.303   4.358
    7        0.023   0.032   4.303   4.358
    8        0.024   0.031   4.302   4.357
    9        0.023   0.032   4.282   4.338
   10        0.024   0.031   4.299   4.355
   11        0.023   0.032   4.302   4.356
   12        0.023   0.023   3.729   3.775
   13        0.023   0.032   4.300   4.356
   14        0.024   0.031   4.302   4.356
   15        0.023   0.032   4.301   4.356
   16        0.025   0.031   4.300   4.356
   17        0.024   0.031   4.302   4.357
   18        0.023   0.031   4.303   4.358
   19        0.023   0.031   4.303   4.358
   20        0.023   0.031   4.304   4.358
   21        0.023   0.031   4.303   4.357
   22        0.023   0.031   4.303   4.357
   23        0.023   0.031   4.303   4.357
   24        0.023   0.031   4.303   4.357
   25        0.007   0.095   0.000   0.102
   26        0.006   0.082   0.000   0.089
   27        0.007   0.098   0.000   0.105
   28        0.007   0.095   0.000   0.102
   29        0.008   0.102   0.000   0.109
   30        0.008   0.113   0.000   0.121
   31        0.007   0.080   0.000   0.087
   32        0.008   0.096   0.000   0.104
   33        0.011   0.127   0.000   0.138
   34        0.010   0.104   0.000   0.114
   35        0.011   0.128   0.000   0.139
   36        0.011   0.123   0.000   0.134
   37        0.009   0.102   0.000   0.111
   38        0.011   0.125   0.000   0.136
   39        0.011   0.131   0.000   0.142
   40        0.011   0.119   0.000   0.130
   41        0.007   0.096   0.000   0.103
   42        0.007   0.088   0.000   0.095
   43        0.007   0.098   0.000   0.105
   44        0.007   0.097   0.000   0.105
   45        0.008   0.101   0.000   0.109
   46        0.008   0.105   0.000   0.113
   47        0.007   0.093   0.000   0.100
   48        0.008   0.099   0.000   0.107
   49        0.011   0.128   0.000   0.139
   50        0.011   0.124   0.000   0.135
   51        0.011   0.125   0.000   0.136
   52        0.011   0.123   0.000   0.133
   53        0.011   0.125   0.000   0.136
   54        0.011   0.126   0.000   0.137
   55        0.011   0.126   0.000   0.138
   56        0.011   0.125   0.000   0.136
   57        0.007   0.105   0.000   0.112
   58        0.007   0.095   0.000   0.102
   59        0.007   0.097   0.000   0.104
   60        0.003   0.023   0.000   0.026
   61        0.008   0.090   0.000   0.098
   62        0.008   0.105   0.000   0.113
   63        0.008   0.095   0.000   0.103
   64        0.003   0.040   0.000   0.044
   65        0.011   0.131   0.000   0.142
   66        0.011   0.126   0.000   0.137
   67        0.009   0.102   0.000   0.112
   68        0.010   0.096   0.000   0.106
   69        0.011   0.130   0.000   0.141
   70        0.009   0.089   0.000   0.098
   71        0.012   0.134   0.000   0.145
   72        0.011   0.123   0.000   0.134
   73        0.007   0.097   0.000   0.104
   74        0.007   0.095   0.000   0.103
   75        0.007   0.094   0.000   0.101
   76        0.007   0.093   0.000   0.100
   77        0.007   0.096   0.000   0.104
   78        0.008   0.103   0.000   0.111
   79        0.007   0.093   0.000   0.100
   80        0.007   0.098   0.000   0.105
   81        0.011   0.124   0.000   0.136
   82        0.011   0.131   0.000   0.142
   83        0.011   0.125   0.000   0.136
   84        0.011   0.128   0.000   0.139
   85        0.011   0.124   0.000   0.135
   86        0.011   0.130   0.000   0.141
   87        0.011   0.128   0.000   0.140
   88        0.011   0.131   0.000   0.142
   89        0.007   0.097   0.000   0.105
   90        0.007   0.096   0.000   0.103
   91        0.007   0.096   0.000   0.103
   92        0.007   0.095   0.000   0.102
   93        0.008   0.101   0.000   0.108
   94        0.008   0.100   0.000   0.108
   95        0.008   0.099   0.000   0.107
   96        0.008   0.097   0.000   0.105
   97        0.011   0.128   0.000   0.140
   98        0.011   0.128   0.000   0.139
   99        0.011   0.126   0.000   0.137
  100        0.011   0.126   0.000   0.137
  101        0.011   0.127   0.000   0.138
  102        0.011   0.124   0.000   0.135
  103        0.011   0.129   0.000   0.140
  104        0.011   0.127   0.000   0.138
  105        0.007   0.095   0.000   0.103
  106        0.007   0.096   0.000   0.103
  107        0.007   0.097   0.000   0.104
  108        0.007   0.097   0.000   0.104
  109        0.008   0.102   0.000   0.109
  110        0.008   0.101   0.000   0.108
  111        0.008   0.099   0.000   0.106
  112        0.008   0.099   0.000   0.106
  113        0.011   0.128   0.000   0.139
  114        0.011   0.128   0.000   0.139
  115        0.011   0.126   0.000   0.137
  116        0.011   0.128   0.000   0.139
  117        0.011   0.127   0.000   0.139
  118        0.011   0.124   0.000   0.135
  119        0.011   0.128   0.000   0.139
  120        0.011   0.127   0.000   0.138
  121        0.004   0.013   0.000   0.017
  122        0.003   0.011   0.000   0.015
  123        0.004   0.013   0.000   0.017
  124        0.004   0.013   0.000   0.016
  125        0.004   0.013   0.000   0.016
  126        0.003   0.012   0.000   0.015
  127        0.004   0.013   0.000   0.017
  128        0.004   0.013   0.000   0.016
  129        0.002   0.009   0.000   0.012
  130        0.004   0.013   0.000   0.017
  131        0.004   0.013   0.000   0.017
  132        0.004   0.013   0.000   0.018
  133        0.004   0.013   0.000   0.017
  134        0.004   0.013   0.000   0.016
  135        0.004   0.013   0.000   0.017
  136        0.003   0.010   0.000   0.013
  137        0.004   0.013   0.000   0.017
  138        0.004   0.013   0.000   0.017
  139        0.004   0.013   0.000   0.017
  140        0.004   0.013   0.000   0.017
  141        0.004   0.013   0.000   0.017
  142        0.004   0.013   0.000   0.017
  143        0.004   0.013   0.000   0.017
  144        0.004   0.013   0.000   0.016
  145        0.000   0.000   0.000   0.001
--------------------------------------------------
tot          1.523  11.513 102.649 115.685


 total amount of memory used by VASP MPI-rank0   264829. kBytes
=======================================================================

   base      :      30000. kBytes
   nonlr-proj:      30740. kBytes
   fftplans  :       9535. kBytes
   grid      :      26700. kBytes
   one-center:       1150. kBytes
   wavefun   :     166704. kBytes

  
  
 General timing and accounting informations for this job:
 ========================================================
  
                  Total CPU time used (sec):      192.476
                            User time (sec):      184.408
                          System time (sec):        8.068
                         Elapsed time (sec):      254.749
  
                   Maximum memory used (kb):      866264.
                   Average memory used (kb):          N/A
  
                          Minor page faults:       144228
                          Major page faults:           45
                 Voluntary context switches:       182235
