 vasp.6.4.0 14Feb23 (build Mar 11 2024 14:58:30) complex                         
 executed on             epyc9004 date 2024.12.14  22:13:18
 running  192 mpi-ranks, on    2 nodes
 distrk:  each k-point on   96 cores,    2 groups
 distr:  one band on NCORE=   4 cores,   24 groups


--------------------------------------------------------------------------------------------------------


 INCAR:
   ENCUT = 520.000000
   SIGMA = 0.050000
   TIME = 0.050000
   NUPDOWN = 119.000000
   EDIFF = 1.00e-06
   EDIFFG = -2.00e-02
   SYMPREC = 1.00e-07
   ALGO = all
   GGA = PE
   PREC = accurate
   IBRION = 2
   ISIF = 2
   ISMEAR = 0
   ISPIN = 2
   ISYM = 0
   KPAR = 2
   LMAXMIX = 4
   LORBIT = 12
   NELM = 300
   NELMIN = 8
   NSW = 1
   NCORE = 4
   LASPH = .TRUE.
   LCHARG = .TRUE.
   LDAU = .TRUE.
   LWAVE = .TRUE.
   LREAL = auto
   LDAUL = 2 -1 -1 -1
   LDAUU = 5.300 0.000 0.000 0.000
   LDAUJ = 0.000 0.000 0.000 0.000
   MAGMOM = 1*4.3568 1*4.3540 1*4.3542 1*4.3578 1*4.3570 1*4.3563 1*4.3538 1*4.3570 1*4.3450 1*4.3500 1*4.3508 1*3.7840 1*4.3570 1*4.3577 1*4.3532 1*4.3570 1*4.3562 2*4.3580 1*4.3572 2*4.3570 1*4.3580 1*4.3570 1*0.1045 1*0.0990 1*0.1043 1*0.1020 1*0.1080 1*0.1167 1*0.0987 1*0.1048 1*0.1407 1*0.1333 1*0.1427 1*0.1347 1*0.1155 1*0.1358 1*0.1403 1*0.1372 1*0.1030 1*0.1022 1*0.1005 1*0.1040 1*0.1088 1*0.1103 1*0.0997 1*0.1063 1*0.1390 1*0.1388 1*0.1353 1*0.1338 1*0.1368 1*0.1388 1*0.1387 1*0.1398 1*0.1110 1*0.0870 1*0.1065 1*0.0310 1*0.0970 1*0.1232 1*0.0853 1*0.0490 1*0.1427 1*0.1298 1*0.1175 1*0.0983 1*0.1413 1*0.1035 1*0.1413 1*0.1187 1*0.1050 1*0.0948 1*0.1033 1*0.0990 1*0.1050 1*0.1117 1*0.0983 1*0.1070 1*0.1393 1*0.1352 1*0.1362 1*0.1387 1*0.1367 1*0.1373 1*0.1367 1*0.1350 1*0.1023 2*0.1030 1*0.1012 2*0.1080 1*0.1060 1*0.1042 1*0.1417 1*0.1383 1*0.1378 1*0.1352 1*0.1372 1*0.1333 1*0.1393 1*0.1397 2*0.1030 2*0.1040 1*0.1082 1*0.1090 1*0.1060 1*0.1077 1*0.1373 1*0.1383 1*0.1387 1*0.1382 1*0.1373 1*0.1332 1*0.1390 1*0.1397 1*0.0162 1*0.0167 1*0.0170 2*0.0168 1*0.0158 1*0.0170 1*0.0160 1*0.0150 1*0.0153 3*0.0170 1*0.0152 1*0.0170 1*0.0150 1*0.0168 2*0.0170 2*0.0162 2*0.0170 1*0.0160 1*0.0010

 POTCAR:    PAW_PBE Fe_pv 02Aug2007               
 POTCAR:    PAW_PBE O 08Apr2002                   
 POTCAR:    PAW_PBE P 06Sep2000                   
 POTCAR:    PAW_PBE Na_pv 19Sep2006               
 -----------------------------------------------------------------------------
|                                                                             |
|           W    W    AA    RRRRR   N    N  II  N    N   GGGG   !!!           |
|           W    W   A  A   R    R  NN   N  II  NN   N  G    G  !!!           |
|           W    W  A    A  R    R  N N  N  II  N N  N  G       !!!           |
|           W WW W  AAAAAA  RRRRR   N  N N  II  N  N N  G  GGG   !            |
|           WW  WW  A    A  R   R   N   NN  II  N   NN  G    G                |
|           W    W  A    A  R    R  N    N  II  N    N   GGGG   !!!           |
|                                                                             |
|     For optimal performance we recommend to set                             |
|       NCORE = 2 up to number-of-cores-per-socket                            |
|     NCORE specifies how many cores store one orbital (NPAR=cpu/NCORE).      |
|     This setting can greatly improve the performance of VASP for DFT.       |
|     The default, NCORE=1 might be grossly inefficient on modern             |
|     multi-core architectures or massively parallel machines. Do your        |
|     own testing! More info at https://www.vasp.at/wiki/index.php/NCORE      |
|     Unfortunately you need to use the default for GW and RPA                |
|     calculations (for HF NCORE is supported but not extensively tested      |
|     yet).                                                                   |
|                                                                             |
 -----------------------------------------------------------------------------

 POTCAR:    PAW_PBE Fe_pv 02Aug2007               
   VRHFIN =Fe:  3pd7s1                                                                              
   LEXCH  = PE                                                                                      
   EATOM  =  2457.4239 eV,  180.6156 Ry                                                             
                                                                                                    
   TITEL  = PAW_PBE Fe_pv 02Aug2007                                                                 
   LULTRA =        F    use ultrasoft PP ?                                                          
   IUNSCR =        1    unscreen: 0-lin 1-nonlin 2-no                                               
   RPACOR =    1.750    partial core radius                                                         
   POMASS =   55.847; ZVAL   =   14.000    mass and valenz                                          
   RCORE  =    2.200    outmost cutoff radius                                                       
   RWIGS  =    2.200; RWIGS  =    1.164    wigner-seitz radius (au A)                               
   ENMAX  =  293.238; ENMIN  =  219.928 eV                                                          
   ICORE  =        3    local potential                                                             
   LCOR   =        T    correct aug charges                                                         
   LPAW   =        T    paw PP                                                                      
   EAUG   =  578.342                                                                                
   DEXC   =    0.000                                                                                
   RMAX   =    2.249    core radius for proj-oper                                                   
   RAUG   =    1.300    factor for augmentation sphere                                              
   RDEP   =    2.296    radius for radial grids                                                     
   RDEPT  =    1.766    core radius for aug-charge                                                  
                                                                                                    
   Atomic configuration                                                                             
    8 entries                                                                                       
     n  l   j            E        occ.                                                              
     1  0  0.50     -6993.8440   2.0000                                                             
     2  0  0.50      -814.6047   2.0000                                                             
     2  1  1.50      -693.3689   6.0000                                                             
     3  0  0.50       -89.4732   2.0000                                                             
     3  1  1.50       -55.6373   6.0000                                                             
     3  2  2.50        -3.8151   7.0000                                                             
     4  0  0.50        -4.2551   1.0000                                                             
     4  3  2.50        -1.3606   0.0000                                                             
   Description                                                                                      
     l       E           TYP  RCUT    TYP  RCUT                                                     
     1    -55.6372668     23  2.000                                                                 
     1     -5.4423304     23  2.000                                                                 
     2     -3.8151096     23  2.200                                                                 
     2     -5.1756922     23  2.200                                                                 
     0     -4.2550951     23  2.200                                                                 
     0     27.2116520     23  2.200                                                                 
     3     -1.3605826     23  2.200                                                                 
  local pseudopotential read in
  partial core-charges read in
  partial kinetic energy density read in
  atomic valenz-charges read in
  non local Contribution for L=           1  read in
    real space projection operators read in
  non local Contribution for L=           1  read in
    real space projection operators read in
  non local Contribution for L=           2  read in
    real space projection operators read in
  non local Contribution for L=           2  read in
    real space projection operators read in
  non local Contribution for L=           0  read in
    real space projection operators read in
  non local Contribution for L=           0  read in
    real space projection operators read in
    PAW grid and wavefunctions read in

   number of l-projection  operators is LMAX  =           6
   number of lm-projection operators is LMMAX =          18

 POTCAR:    PAW_PBE O 08Apr2002                   
   VRHFIN =O: s2p4                                                                                  
   LEXCH  = PE                                                                                      
   EATOM  =   432.3788 eV,   31.7789 Ry                                                             
                                                                                                    
   TITEL  = PAW_PBE O 08Apr2002                                                                     
   LULTRA =        F    use ultrasoft PP ?                                                          
   IUNSCR =        1    unscreen: 0-lin 1-nonlin 2-no                                               
   RPACOR =    1.200    partial core radius                                                         
   POMASS =   16.000; ZVAL   =    6.000    mass and valenz                                          
   RCORE  =    1.520    outmost cutoff radius                                                       
   RWIGS  =    1.550; RWIGS  =    0.820    wigner-seitz radius (au A)                               
   ENMAX  =  400.000; ENMIN  =  300.000 eV                                                          
   ICORE  =        2    local potential                                                             
   LCOR   =        T    correct aug charges                                                         
   LPAW   =        T    paw PP                                                                      
   EAUG   =  605.392                                                                                
   DEXC   =    0.000                                                                                
   RMAX   =    1.553    core radius for proj-oper                                                   
   RAUG   =    1.300    factor for augmentation sphere                                              
   RDEP   =    1.550    radius for radial grids                                                     
   RDEPT  =    1.329    core radius for aug-charge                                                  
                                                                                                    
   Atomic configuration                                                                             
    4 entries                                                                                       
     n  l   j            E        occ.                                                              
     1  0  0.50      -514.6923   2.0000                                                             
     2  0  0.50       -23.9615   2.0000                                                             
     2  1  0.50        -9.0305   4.0000                                                             
     3  2  1.50        -9.5241   0.0000                                                             
   Description                                                                                      
     l       E           TYP  RCUT    TYP  RCUT                                                     
     0    -23.9615318     23  1.200                                                                 
     0     -9.5240782     23  1.200                                                                 
     1     -9.0304911     23  1.520                                                                 
     1      8.1634956     23  1.520                                                                 
     2     -9.5240782      7  1.500                                                                 
  local pseudopotential read in
  partial core-charges read in
  partial kinetic energy density read in
  kinetic energy density of atom read in
  atomic valenz-charges read in
  non local Contribution for L=           0  read in
    real space projection operators read in
  non local Contribution for L=           0  read in
    real space projection operators read in
  non local Contribution for L=           1  read in
    real space projection operators read in
  non local Contribution for L=           1  read in
    real space projection operators read in
    PAW grid and wavefunctions read in

   number of l-projection  operators is LMAX  =           4
   number of lm-projection operators is LMMAX =           8

 POTCAR:    PAW_PBE P 06Sep2000                   
   VRHFIN =P : s2p3                                                                                 
   LEXCH  = PE                                                                                      
   EATOM  =   176.0430 eV,   12.9388 Ry                                                             
                                                                                                    
   TITEL  = PAW_PBE P 06Sep2000                                                                     
   LULTRA =        F    use ultrasoft PP ?                                                          
   IUNSCR =        1    unscreen: 0-lin 1-nonlin 2-no                                               
   RPACOR =    1.500    partial core radius                                                         
   POMASS =   30.974; ZVAL   =    5.000    mass and valenz                                          
   RCORE  =    1.900    outmost cutoff radius                                                       
   RWIGS  =    2.330; RWIGS  =    1.233    wigner-seitz radius (au A)                               
   ENMAX  =  255.040; ENMIN  =  191.280 eV                                                          
   ICORE  =        2    local potential                                                             
   LCOR   =        T    correct aug charges                                                         
   LPAW   =        T    paw PP                                                                      
   EAUG   =  342.924                                                                                
   DEXC   =    0.000                                                                                
   RMAX   =    1.935    core radius for proj-oper                                                   
   RAUG   =    1.300    factor for augmentation sphere                                              
   RDEP   =    1.931    radius for radial grids                                                     
   RDEPT  =    1.794    core radius for aug-charge                                                  
                                                                                                    
   Atomic configuration                                                                             
    6 entries                                                                                       
     n  l   j            E        occ.                                                              
     1  0  0.50     -2084.0982   2.0000                                                             
     2  0  0.50      -173.9859   2.0000                                                             
     2  1  1.50      -124.4865   6.0000                                                             
     3  0  0.50       -13.9692   2.0000                                                             
     3  1  0.50        -5.5067   3.0000                                                             
     3  2  1.50        -5.4423   0.0000                                                             
   Description                                                                                      
     l       E           TYP  RCUT    TYP  RCUT                                                     
     0    -13.9691527     23  1.900                                                                 
     0    -11.7794650     23  1.900                                                                 
     1     -5.5066937     23  1.900                                                                 
     1     -0.2556953     23  1.900                                                                 
     2     -5.4423304     23  1.900                                                                 
  local pseudopotential read in
  partial core-charges read in
  partial kinetic energy density read in
  atomic valenz-charges read in
  non local Contribution for L=           0  read in
    real space projection operators read in
  non local Contribution for L=           0  read in
    real space projection operators read in
  non local Contribution for L=           1  read in
    real space projection operators read in
  non local Contribution for L=           1  read in
    real space projection operators read in
    PAW grid and wavefunctions read in

   number of l-projection  operators is LMAX  =           4
   number of lm-projection operators is LMMAX =           8

 POTCAR:    PAW_PBE Na_pv 19Sep2006               
   VRHFIN =Na: p6s1                                                                                 
   LEXCH  = PE                                                                                      
   EATOM  =   766.0439 eV,   56.3026 Ry                                                             
                                                                                                    
   TITEL  = PAW_PBE Na_pv 19Sep2006                                                                 
   LULTRA =        F    use ultrasoft PP ?                                                          
   IUNSCR =        1    unscreen: 0-lin 1-nonlin 2-no                                               
   RPACOR =    1.800    partial core radius                                                         
   POMASS =   22.990; ZVAL   =    7.000    mass and valenz                                          
   RCORE  =    2.200    outmost cutoff radius                                                       
   RWIGS  =    2.200; RWIGS  =    1.164    wigner-seitz radius (au A)                               
   ENMAX  =  259.561; ENMIN  =  194.671 eV                                                          
   ICORE  =        2    local potential                                                             
   LCOR   =        T    correct aug charges                                                         
   LPAW   =        T    paw PP                                                                      
   EAUG   =  368.056                                                                                
   DEXC   =    0.000                                                                                
   RMAX   =    2.245    core radius for proj-oper                                                   
   RAUG   =    1.300    factor for augmentation sphere                                              
   RDEP   =    2.259    radius for radial grids                                                     
   RDEPT  =    1.738    core radius for aug-charge                                                  
                                                                                                    
   Atomic configuration                                                                             
    5 entries                                                                                       
     n  l   j            E        occ.                                                              
     1  0  0.50     -1033.6933   2.0000                                                             
     2  0  0.50       -56.7526   2.0000                                                             
     2  1  1.50       -28.6721   6.0000                                                             
     3  0  0.50        -2.7440   1.0000                                                             
     3  2  1.50        -1.3606   0.0000                                                             
   Description                                                                                      
     l       E           TYP  RCUT    TYP  RCUT                                                     
     1    -28.6720912     23  2.000                                                                 
     1      6.8029130     23  2.000                                                                 
     0     -2.7439560     23  2.200                                                                 
     0     34.0145650     23  2.200                                                                 
     2     -1.3605826     23  2.200                                                                 
  local pseudopotential read in
  partial core-charges read in
  partial kinetic energy density read in
  atomic valenz-charges read in
  non local Contribution for L=           1  read in
    real space projection operators read in
  non local Contribution for L=           1  read in
    real space projection operators read in
  non local Contribution for L=           0  read in
    real space projection operators read in
  non local Contribution for L=           0  read in
    real space projection operators read in
    PAW grid and wavefunctions read in

   number of l-projection  operators is LMAX  =           4
   number of lm-projection operators is LMMAX =           8

 Optimization of the real space projectors (new method)

 maximal supplied QI-value         = 17.01
 optimisation between [QCUT,QGAM] = [ 11.57, 23.30] = [ 37.45,152.03] Ry 
 Optimized for a Real-space Cutoff    1.45 Angstroem

   l    n(q)    QCUT    max X(q) W(low)/X(q) W(high)/X(q)  e(spline) 
   1     10    11.565     4.267    0.91E-04    0.15E-03    0.13E-06
   1     10    11.565     5.750    0.14E-03    0.22E-03    0.20E-06
   2      9    11.565    53.656    0.13E-03    0.57E-04    0.16E-06
   2      9    11.565    49.521    0.13E-03    0.59E-04    0.16E-06
   0     10    11.565    31.246    0.61E-04    0.74E-05    0.89E-07
   0     10    11.565    12.201    0.44E-04    0.68E-05    0.74E-07
 Optimization of the real space projectors (new method)

 maximal supplied QI-value         = 24.76
 optimisation between [QCUT,QGAM] = [ 11.64, 23.27] = [ 37.91,151.63] Ry 
 Optimized for a Real-space Cutoff    1.14 Angstroem

   l    n(q)    QCUT    max X(q) W(low)/X(q) W(high)/X(q)  e(spline) 
   0      8    11.635    20.381    0.10E-03    0.33E-03    0.24E-06
   0      8    11.635    15.268    0.11E-03    0.35E-03    0.26E-06
   1      7    11.635     5.964    0.24E-03    0.31E-03    0.30E-06
   1      7    11.635     5.382    0.22E-03    0.25E-03    0.26E-06
 Optimization of the real space projectors (new method)

 maximal supplied QI-value         = 19.84
 optimisation between [QCUT,QGAM] = [ 11.51, 23.22] = [ 37.09,150.92] Ry 
 Optimized for a Real-space Cutoff    1.21 Angstroem

   l    n(q)    QCUT    max X(q) W(low)/X(q) W(high)/X(q)  e(spline) 
   0      8    11.508   160.924    0.96E-04    0.17E-03    0.52E-07
   0      8    11.508   130.086    0.95E-04    0.17E-03    0.51E-07
   1      8    11.508    74.434    0.16E-03    0.74E-04    0.91E-07
   1      8    11.508    49.120    0.16E-03    0.71E-04    0.89E-07
 Optimization of the real space projectors (new method)

 maximal supplied QI-value         = 17.01
 optimisation between [QCUT,QGAM] = [ 11.57, 23.30] = [ 37.45,152.03] Ry 
 Optimized for a Real-space Cutoff    1.45 Angstroem

   l    n(q)    QCUT    max X(q) W(low)/X(q) W(high)/X(q)  e(spline) 
   1     10    11.565     4.940    0.87E-04    0.13E-03    0.13E-06
   1     10    11.565     6.253    0.13E-03    0.19E-03    0.20E-06
   0     10    11.565    37.438    0.53E-04    0.73E-05    0.79E-07
   0     10    11.565     9.606    0.27E-04    0.60E-05    0.56E-07
  PAW_PBE Fe_pv 02Aug2007               :
 energy of atom  1       EATOM=-2457.4239
 kinetic energy error for atom=    0.0062 (will be added to EATOM!!)
  PAW_PBE O 08Apr2002                   :
 energy of atom  2       EATOM= -432.3788
 kinetic energy error for atom=    0.0208 (will be added to EATOM!!)
  PAW_PBE P 06Sep2000                   :
 energy of atom  3       EATOM= -176.0430
 kinetic energy error for atom=    0.0011 (will be added to EATOM!!)
  PAW_PBE Na_pv 19Sep2006               :
 energy of atom  4       EATOM= -766.0439
 kinetic energy error for atom=    0.0019 (will be added to EATOM!!)


 POSCAR: Fe O  P  Na
  positions in cartesian coordinates
  No initial velocities read in
 exchange correlation table for  LEXCH =        8
   RHO(1)=    0.500       N(1)  =     2000
   RHO(2)=  100.500       N(2)  =     4000



--------------------------------------------------------------------------------------------------------


 ion  position               nearest neighbor table
   1  0.275  0.084  0.478-  25 1.93  45 1.94  98 2.08  40 2.09  55 2.16  49 2.18 125 2.83
   2  0.227  0.249  0.227-  26 1.93  30 1.94  65 2.07  39 2.08  40 2.14  34 2.22 122 2.83
   3  0.727  0.249  0.020-  27 1.94  47 1.97  70 2.01  36 2.08  51 2.16  53 2.19 127 2.82
   4  0.775  0.082  0.271-  28 1.94  32 1.96  35 2.03 101 2.07  36 2.17  38 2.17 124 2.83
   5  0.275  0.083  0.978-  41 1.93  29 1.94  56 2.07 114 2.07  39 2.16  33 2.17 121 2.82
   6  0.226  0.248  0.730-  42 1.93  46 1.94  55 2.07  81 2.10  56 2.15  50 2.15 126 2.81
   7  0.728  0.249  0.521-  43 1.93  31 1.95  37 2.08  86 2.09  52 2.09  35 2.22 123 2.81
   8  0.774  0.083  0.771-  44 1.93  48 1.95  51 2.08 117 2.08  52 2.15  54 2.17 128 2.82
   9  0.271  0.414  0.489-  57 1.92  77 1.95  34 2.09  81 2.09  72 2.14  87 2.15 133 2.76
  10  0.221  0.586  0.230-  62 1.92  58 1.97  97 2.04  71 2.07  66 2.19  72 2.22 130 2.87
  11  0.725  0.583  0.019-  59 1.93  79 1.96  68 2.04 102 2.09  83 2.16  85 2.16 135 2.81
  12  0.787  0.414  0.279-  64 2.01  60 2.05  37 2.10  67 2.14  70 2.34
  13  0.275  0.415  0.976-  73 1.92  61 1.95  50 2.07  88 2.09  65 2.13  71 2.19 129 2.81
  14  0.223  0.585  0.734-  78 1.93  74 1.93 113 2.08  87 2.08  82 2.15  88 2.17 134 2.82
  15  0.726  0.583  0.522-  75 1.93  63 2.00  84 2.07 118 2.08  67 2.08  69 2.22 131 2.80
  16  0.778  0.416  0.766-  76 1.90  80 1.92  53 2.08  83 2.10  86 2.15  84 2.16 136 2.81
  17  0.273  0.752  0.480-  89 1.93 109 1.95 104 2.06  66 2.07 119 2.14 113 2.19 141 2.82
  18  0.226  0.917  0.229-  90 1.93  94 1.95  33 2.06 103 2.08 104 2.17  98 2.17 138 2.82
  19  0.725  0.917  0.021-  91 1.93 111 1.95  38 2.07 100 2.08 117 2.16 115 2.17 143 2.82
  20  0.774  0.751  0.271-  92 1.94  96 1.96  69 2.04  99 2.07 100 2.16 102 2.18 140 2.82
  21  0.275  0.752  0.979- 105 1.93  93 1.94 120 2.06  82 2.07 103 2.15  97 2.18 137 2.83
  22  0.225  0.917  0.729- 106 1.93 110 1.95  49 2.07 119 2.08 114 2.16 120 2.17 142 2.83
  23  0.725  0.917  0.521- 107 1.93  95 1.95  54 2.07 116 2.08 101 2.16  99 2.17 139 2.83
  24  0.774  0.750  0.771- 108 1.93 112 1.95 115 2.08  85 2.08 116 2.16 118 2.18 144 2.83
  25  0.123  0.083  0.356- 121 1.53   1 1.93
  26  0.381  0.248  0.106- 126 1.53   2 1.93
  27  0.878  0.248  0.144- 123 1.53   3 1.94
  28  0.621  0.082  0.392- 128 1.53   4 1.94
  29  0.445  0.082  0.075- 124 1.53   5 1.94
  30  0.058  0.248  0.324- 123 1.53   2 1.94
  31  0.556  0.248  0.425- 122 1.53   7 1.95
  32  0.946  0.082  0.172- 121 1.53   4 1.96
  33  0.170  0.015  0.129- 121 1.58  18 2.06   5 2.17
  34  0.335  0.319  0.380- 122 1.58   9 2.09   2 2.22
  35  0.835  0.177  0.371- 123 1.58   4 2.03   7 2.22
  36  0.669  0.150  0.120- 124 1.58   3 2.08   4 2.17
  37  0.834  0.312  0.377- 123 1.57   7 2.08  12 2.10
  38  0.669  0.015  0.120- 124 1.58  19 2.07   4 2.17
  39  0.170  0.150  0.128- 121 1.58   2 2.08   5 2.16
  40  0.330  0.183  0.379- 122 1.58   1 2.09   2 2.14
  41  0.122  0.082  0.857- 125 1.53   5 1.93
  42  0.378  0.250  0.607- 122 1.53   6 1.93
  43  0.881  0.248  0.642- 127 1.52   7 1.93
  44  0.622  0.083  0.892- 124 1.53   8 1.93
  45  0.445  0.084  0.575- 128 1.53   1 1.94
  46  0.056  0.248  0.827- 127 1.53   6 1.94
  47  0.555  0.248  0.920- 126 1.52   3 1.97
  48  0.945  0.082  0.674- 125 1.53   8 1.95
  49  0.169  0.015  0.628- 125 1.58  22 2.07   1 2.18
  50  0.330  0.316  0.878- 126 1.58  13 2.07   6 2.15
  51  0.831  0.181  0.871- 127 1.58   8 2.08   3 2.16
  52  0.670  0.150  0.620- 128 1.58   7 2.09   8 2.15
  53  0.833  0.317  0.869- 127 1.57  16 2.08   3 2.19
  54  0.668  0.015  0.620- 128 1.58  23 2.07   8 2.17
  55  0.169  0.150  0.629- 125 1.58   6 2.07   1 2.16
  56  0.331  0.181  0.878- 126 1.58   5 2.07   6 2.15
  57  0.126  0.415  0.359- 129 1.53   9 1.92
  58  0.382  0.582  0.112- 134 1.54  10 1.97
  59  0.875  0.584  0.144- 131 1.53  11 1.93
  60  0.615  0.415  0.394- 136 1.52  12 2.05 145 2.18
  61  0.451  0.412  0.064- 132 1.55  13 1.95 145 2.19
  62  0.053  0.585  0.325- 131 1.53  10 1.92
  63  0.550  0.581  0.424- 130 1.54  15 2.00
  64  0.956  0.419  0.166- 129 1.50  12 2.01
  65  0.179  0.349  0.131- 129 1.59   2 2.07  13 2.13
  66  0.329  0.653  0.383- 130 1.58  17 2.07  10 2.19
  67  0.829  0.520  0.376- 131 1.57  15 2.08  12 2.14
  68  0.664  0.484  0.109- 132 1.57  11 2.04 145 2.35
  69  0.831  0.655  0.370- 131 1.58  20 2.04  15 2.22
  70  0.673  0.347  0.108- 132 1.55   3 2.01  12 2.34
  71  0.183  0.484  0.135- 129 1.59  10 2.07  13 2.19
  72  0.322  0.518  0.390- 130 1.59   9 2.14 145 2.18  10 2.22
  73  0.119  0.416  0.861- 133 1.52  13 1.92
  74  0.379  0.587  0.615- 130 1.52  14 1.93
  75  0.879  0.585  0.643- 135 1.53  15 1.93
  76  0.623  0.416  0.880- 132 1.52  16 1.90
  77  0.444  0.418  0.582- 136 1.54   9 1.95
  78  0.053  0.584  0.829- 135 1.53  14 1.93
  79  0.553  0.585  0.922- 134 1.52  11 1.96
  80  0.947  0.417  0.671- 133 1.52  16 1.92
  81  0.170  0.349  0.633- 133 1.58   9 2.09   6 2.10
  82  0.327  0.651  0.885- 134 1.58  21 2.07  14 2.15
  83  0.830  0.516  0.869- 135 1.58  16 2.10  11 2.16
  84  0.671  0.484  0.619- 136 1.59  15 2.07  16 2.16
  85  0.829  0.652  0.871- 135 1.58  24 2.08  11 2.16
  86  0.670  0.348  0.621- 136 1.58   7 2.09  16 2.15
  87  0.171  0.485  0.635- 133 1.58  14 2.08   9 2.15
  88  0.330  0.516  0.882- 134 1.58  13 2.09  14 2.17
  89  0.121  0.751  0.357- 137 1.53  17 1.93
  90  0.379  0.917  0.107- 142 1.53  18 1.93
  91  0.878  0.916  0.142- 139 1.53  19 1.93
  92  0.620  0.751  0.391- 144 1.53  20 1.94
  93  0.445  0.750  0.076- 140 1.53  21 1.94
  94  0.055  0.917  0.325- 139 1.53  18 1.95
  95  0.555  0.917  0.424- 138 1.53  23 1.95
  96  0.945  0.751  0.173- 137 1.52  20 1.96
  97  0.170  0.683  0.130- 137 1.59  10 2.04  21 2.18
  98  0.331  0.985  0.379- 138 1.58   1 2.08  18 2.17
  99  0.831  0.849  0.371- 139 1.58  20 2.07  23 2.17
 100  0.669  0.818  0.120- 140 1.58  19 2.08  20 2.16
 101  0.831  0.984  0.371- 139 1.58   4 2.07  23 2.16
 102  0.669  0.682  0.120- 140 1.58  11 2.09  20 2.18
 103  0.170  0.818  0.129- 137 1.58  18 2.08  21 2.15
 104  0.330  0.849  0.379- 138 1.58  17 2.06  18 2.17
 105  0.121  0.751  0.858- 141 1.53  21 1.93
 106  0.378  0.917  0.607- 138 1.53  22 1.93
 107  0.878  0.917  0.642- 143 1.53  23 1.93
 108  0.621  0.751  0.892- 140 1.53  24 1.93
 109  0.445  0.751  0.576- 144 1.53  17 1.95
 110  0.055  0.917  0.826- 143 1.53  22 1.95
 111  0.555  0.917  0.923- 142 1.53  19 1.95
 112  0.945  0.751  0.675- 141 1.53  24 1.95
 113  0.168  0.683  0.631- 141 1.58  14 2.08  17 2.19
 114  0.331  0.984  0.879- 142 1.58   5 2.07  22 2.16
 115  0.830  0.849  0.870- 143 1.58  24 2.08  19 2.17
 116  0.670  0.818  0.620- 144 1.58  23 2.08  24 2.16
 117  0.830  0.984  0.870- 143 1.58   8 2.08  19 2.16
 118  0.668  0.682  0.619- 144 1.58  15 2.08  24 2.18
 119  0.169  0.818  0.630- 141 1.58  22 2.08  17 2.14
 120  0.331  0.849  0.879- 142 1.58  21 2.06  22 2.17
 121  0.096  0.083  0.202-  32 1.53  25 1.53  39 1.58  33 1.58   5 2.82
 122  0.406  0.250  0.454-  31 1.53  42 1.53  40 1.58  34 1.58   2 2.83
 123  0.906  0.246  0.298-  27 1.53  30 1.53  37 1.57  35 1.58   7 2.81
 124  0.596  0.083  0.046-  44 1.53  29 1.53  36 1.58  38 1.58   4 2.83
 125  0.096  0.082  0.703-  41 1.53  48 1.53  49 1.58  55 1.58   1 2.83
 126  0.406  0.248  0.952-  47 1.52  26 1.53  56 1.58  50 1.58   6 2.81
 127  0.905  0.249  0.797-  43 1.52  46 1.53  53 1.57  51 1.58   3 2.82
 128  0.596  0.083  0.546-  28 1.53  45 1.53  52 1.58  54 1.58   8 2.82
 129  0.102  0.417  0.204-  64 1.50  57 1.53  65 1.59  71 1.59  13 2.81
 130  0.400  0.586  0.461-  74 1.52  63 1.54  66 1.58  72 1.59  10 2.87
 131  0.901  0.586  0.298-  59 1.53  62 1.53  67 1.57  69 1.58  15 2.80
 132  0.603  0.414  0.034-  76 1.52  61 1.55  70 1.55  68 1.57 145 2.72
 133  0.096  0.417  0.707-  80 1.52  73 1.52  87 1.58  81 1.58   9 2.76
 134  0.404  0.583  0.956-  79 1.52  58 1.54  82 1.58  88 1.58  14 2.82
 135  0.903  0.584  0.797-  75 1.53  78 1.53  83 1.58  85 1.58  11 2.81
 136  0.595  0.416  0.548-  60 1.52  77 1.54  86 1.58  84 1.59  16 2.81
 137  0.095  0.751  0.203-  96 1.52  89 1.53 103 1.58  97 1.59  21 2.83
 138  0.404  0.917  0.453- 106 1.53  95 1.53  98 1.58 104 1.58  18 2.82
 139  0.904  0.917  0.296-  91 1.53  94 1.53 101 1.58  99 1.58  23 2.83
 140  0.596  0.750  0.046- 108 1.53  93 1.53 102 1.58 100 1.58  20 2.82
 141  0.095  0.751  0.704- 105 1.53 112 1.53 113 1.58 119 1.58  17 2.82
 142  0.405  0.917  0.953-  90 1.53 111 1.53 114 1.58 120 1.58  22 2.83
 143  0.904  0.917  0.796- 107 1.53 110 1.53 117 1.58 115 1.58  19 2.82
 144  0.595  0.750  0.546-  92 1.53 109 1.53 118 1.58 116 1.58  24 2.83
 145  0.478  0.474  0.257-  72 2.18  60 2.18  61 2.19  68 2.35 132 2.72


IMPORTANT INFORMATION: All symmetrisations will be switched off!
NOSYMM: (Re-)initialisation of all symmetry stuff for point group C_1.


----------------------------------------------------------------------------------------

                                     Primitive cell                                     

  volume of cell :    1723.3780

  direct lattice vectors                    reciprocal lattice vectors
     9.962489075 -0.000069663 -0.000154526     0.100376522  0.000000553 -0.000000819
    -0.000097698 17.717656860 -0.000226836     0.000000395  0.056440872 -0.000000631
     0.000079674  0.000109170  9.763519320     0.000001589  0.000001311  0.102422084

  length of vectors
     9.962489076 17.717656862  9.763519321     0.100376522  0.056440872  0.102422084

  position of ions in fractional coordinates (direct lattice)
     0.274877311  0.083639493  0.478118982
     0.227463420  0.248811565  0.227459761
     0.726542977  0.248698497  0.020407696
     0.775154198  0.082354720  0.270706825
     0.274894535  0.082671310  0.978173168
     0.225694043  0.247905904  0.729740714
     0.728039219  0.249480261  0.520836875
     0.774221212  0.083153823  0.770612661
     0.271297282  0.414251754  0.488650373
     0.221492612  0.586390757  0.229594327
     0.724593461  0.582855830  0.019242970
     0.786752322  0.414085981  0.278535610
     0.275287954  0.414501953  0.976322681
     0.223442951  0.584817050  0.733669403
     0.725599331  0.582902316  0.521696684
     0.778049180  0.415719886  0.766374243
     0.273494928  0.752287789  0.480092345
     0.225880977  0.917230216  0.228528041
     0.725384688  0.916724174  0.020849580
     0.774042760  0.751109404  0.270549803
     0.274581423  0.751658279  0.979136376
     0.225138584  0.917176819  0.728604960
     0.725315705  0.916858169  0.521115870
     0.773558491  0.750463195  0.770831068
     0.122721417  0.082923793  0.356207770
     0.380685103  0.248077732  0.106137796
     0.878262867  0.247906112  0.144239896
     0.621228169  0.082415245  0.391668730
     0.445247801  0.082348813  0.075416396
     0.057800914  0.247570045  0.323992496
     0.556132040  0.248362200  0.425330506
     0.946047519  0.081619769  0.172189944
     0.170380770  0.014792149  0.128625042
     0.335297327  0.319238503  0.380186244
     0.835309917  0.177157537  0.370743599
     0.669239395  0.150160616  0.120329216
     0.833880442  0.311771069  0.376753258
     0.669212470  0.014739299  0.120030527
     0.170140007  0.150084812  0.127720714
     0.330346348  0.183232875  0.379115313
     0.121777406  0.082391908  0.856883973
     0.377595418  0.250216451  0.607461772
     0.880845466  0.248403590  0.642433823
     0.621636018  0.082648249  0.892039681
     0.445231330  0.083759231  0.575222651
     0.056073985  0.248381040  0.826984393
     0.555388906  0.247925222  0.920315710
     0.945087319  0.082469148  0.673692602
     0.169222001  0.014996411  0.628421844
     0.330072897  0.315810254  0.878149411
     0.831267315  0.181430235  0.870668741
     0.670479195  0.150221552  0.620102867
     0.833182124  0.317210184  0.868721495
     0.668415851  0.014951710  0.620239327
     0.169233818  0.150262512  0.628827910
     0.330862815  0.180727447  0.878224421
     0.125849646  0.415438455  0.359375268
     0.382414789  0.581714774  0.112021077
     0.874889363  0.583932835  0.143772076
     0.614905812  0.414691846  0.394429892
     0.450515516  0.411891597  0.064203628
     0.053023148  0.585307996  0.324864673
     0.549506389  0.581187274  0.424375958
     0.956212086  0.418533236  0.166322715
     0.179195349  0.349130947  0.131202405
     0.328919872  0.653049317  0.382724052
     0.828975569  0.520030454  0.375622172
     0.663583633  0.484466546  0.109321231
     0.830765575  0.654851404  0.370191805
     0.673030800  0.346734520  0.108268949
     0.183340167  0.484209240  0.135458875
     0.322193467  0.518285189  0.390417476
     0.118501998  0.416278735  0.861153632
     0.378619135  0.587124260  0.614657932
     0.879157714  0.584609390  0.642575093
     0.622793039  0.415706377  0.880001201
     0.444132724  0.417569340  0.582193686
     0.053431235  0.584376461  0.828530104
     0.553057080  0.585417408  0.922052570
     0.946882821  0.417328717  0.671351431
     0.169502503  0.349043712  0.633499072
     0.326762223  0.650929534  0.885399850
     0.830297550  0.515855807  0.869186242
     0.670777946  0.483970082  0.619377871
     0.829031993  0.651598969  0.870611815
     0.670136872  0.348278252  0.620757615
     0.170769058  0.484813271  0.635223018
     0.329598115  0.515826170  0.882371121
     0.121158691  0.751101812  0.357498855
     0.378868907  0.916501196  0.106946057
     0.878165060  0.916454558  0.142391943
     0.619898544  0.750632532  0.391421295
     0.444945884  0.750228634  0.075910997
     0.054978833  0.916609103  0.325438240
     0.554794386  0.916560695  0.423795857
     0.945375716  0.751084206  0.172586987
     0.169568407  0.683099982  0.130006557
     0.331139378  0.984752787  0.379140459
     0.830807948  0.848870321  0.370596308
     0.669085590  0.817921641  0.119951444
     0.830891472  0.984104584  0.370813547
     0.668590917  0.682359028  0.119885960
     0.169944513  0.818342067  0.129094103
     0.330348733  0.849461363  0.379266187
     0.121248197  0.750979387  0.858262573
     0.378257064  0.916783656  0.607388600
     0.878141390  0.916555193  0.642257447
     0.620705104  0.750508799  0.891837277
     0.444821575  0.750771332  0.576119548
     0.054544679  0.916589771  0.825629217
     0.554996821  0.916584997  0.922997009
     0.944581591  0.750616336  0.674721450
     0.168437713  0.682749561  0.630982624
     0.330752761  0.984157075  0.878609509
     0.830359350  0.848901920  0.870407034
     0.669581368  0.817669142  0.620066819
     0.830462994  0.984288082  0.870381677
     0.668209051  0.682122383  0.618924934
     0.168665523  0.818178471  0.629507218
     0.330906590  0.848941259  0.878791979
     0.096329547  0.082561482  0.202144430
     0.405643928  0.250216781  0.453735601
     0.906235702  0.246215767  0.297971392
     0.595931922  0.082601555  0.046195489
     0.095590177  0.082496254  0.702905642
     0.405552371  0.248337639  0.951833176
     0.905470801  0.248897618  0.796570811
     0.596045250  0.082996523  0.545773295
     0.102158778  0.416735453  0.204143794
     0.399866732  0.586245693  0.460745092
     0.901471099  0.585766768  0.297683721
     0.603100274  0.413704519  0.034079803
     0.095788241  0.417026483  0.706750040
     0.403777748  0.583412014  0.955772748
     0.903034581  0.584067641  0.796925264
     0.594642608  0.415868786  0.548237690
     0.095410977  0.751144462  0.203469235
     0.404320091  0.917073012  0.453352144
     0.904262627  0.916557285  0.296412933
     0.595615021  0.750124490  0.046117426
     0.095034663  0.750599476  0.704270653
     0.404588463  0.916655225  0.952835601
     0.903838132  0.916635929  0.796374740
     0.595404611  0.750317408  0.545681607
     0.478107067  0.473769652  0.256916928

  ion indices of the primitive-cell ions
   primitive index   ion index
                 1           1
                 2           2
                 3           3
                 4           4
                 5           5
                 6           6
                 7           7
                 8           8
                 9           9
                10          10
                11          11
                12          12
                13          13
                14          14
                15          15
                16          16
                17          17
                18          18
                19          19
                20          20
                21          21
                22          22
                23          23
                24          24
                25          25
                26          26
                27          27
                28          28
                29          29
                30          30
                31          31
                32          32
                33          33
                34          34
                35          35
                36          36
                37          37
                38          38
                39          39
                40          40
                41          41
                42          42
                43          43
                44          44
                45          45
                46          46
                47          47
                48          48
                49          49
                50          50
                51          51
                52          52
                53          53
                54          54
                55          55
                56          56
                57          57
                58          58
                59          59
                60          60
                61          61
                62          62
                63          63
                64          64
                65          65
                66          66
                67          67
                68          68
                69          69
                70          70
                71          71
                72          72
                73          73
                74          74
                75          75
                76          76
                77          77
                78          78
                79          79
                80          80
                81          81
                82          82
                83          83
                84          84
                85          85
                86          86
                87          87
                88          88
                89          89
                90          90
                91          91
                92          92
                93          93
                94          94
                95          95
                96          96
                97          97
                98          98
                99          99
               100         100
               101         101
               102         102
               103         103
               104         104
               105         105
               106         106
               107         107
               108         108
               109         109
               110         110
               111         111
               112         112
               113         113
               114         114
               115         115
               116         116
               117         117
               118         118
               119         119
               120         120
               121         121
               122         122
               123         123
               124         124
               125         125
               126         126
               127         127
               128         128
               129         129
               130         130
               131         131
               132         132
               133         133
               134         134
               135         135
               136         136
               137         137
               138         138
               139         139
               140         140
               141         141
               142         142
               143         143
               144         144
               145         145

----------------------------------------------------------------------------------------



 KPOINTS: KPOINTS created by Atomic Simulation Env

Automatic generation of k-mesh.
 Grid dimensions read from file:
 generate k-points for:    3    1    3

 Generating k-lattice:

  Cartesian coordinates                     Fractional coordinates (reciprocal lattice)
     0.033458841  0.000000184 -0.000000273     0.333333333  0.000000000 -0.000000000
     0.000000395  0.056440872 -0.000000631    -0.000000000  1.000000000  0.000000000
     0.000000530  0.000000437  0.034140695     0.000000000 -0.000000000  0.333333333

  Length of vectors
     0.033458841  0.056440872  0.034140695

  Shift w.r.t. Gamma in fractional coordinates (k-lattice)
     0.000000000  0.000000000  0.000000000

 
 Subroutine IBZKPT returns following result:
 ===========================================
 
 Found      5 irreducible k-points:
 
 Following reciprocal coordinates:
            Coordinates               Weight
  0.000000  0.000000  0.000000      1.000000
  0.333333  0.000000  0.000000      2.000000
  0.000000  0.000000  0.333333      2.000000
  0.333333  0.000000  0.333333      2.000000
 -0.333333  0.000000  0.333333      2.000000
 
 Following cartesian coordinates:
            Coordinates               Weight
  0.000000  0.000000  0.000000      1.000000
  0.033459  0.000000 -0.000000      2.000000
  0.000001  0.000000  0.034141      2.000000
  0.033459  0.000001  0.034140      2.000000
 -0.033458  0.000000  0.034141      2.000000
 


--------------------------------------------------------------------------------------------------------




 Dimension of arrays:
   k-points           NKPTS =      5   k-points in BZ     NKDIM =      5   number of bands    NBANDS=    696
   number of dos      NEDOS =    301   number of ions     NIONS =    145
   non local maximal  LDIM  =      6   non local SUM 2l+1 LMDIM =     18
   total plane-waves  NPLWV = 896000
   max r-space proj   IRMAX =   6631   max aug-charges    IRDMAX=  16019
   dimension x,y,z NGX =    80 NGY =  140 NGZ =   80
   dimension x,y,z NGXF=   160 NGYF=  280 NGZF=  160
   support grid    NGXF=   160 NGYF=  280 NGZF=  160
   ions per type =              24  96  24   1
   NGX,Y,Z   is equivalent  to a cutoff of  13.35, 13.14, 13.62 a.u.
   NGXF,Y,Z  is equivalent  to a cutoff of  26.70, 26.27, 27.24 a.u.

 SYSTEM =  unknown system                          
 POSCAR =  Fe O  P  Na                             

 Startparameter for this run:
   NWRITE =      2    write-flag & timer
   PREC   = accura    normal or accurate (medium, high low for compatibility)
   ISTART =      1    job   : 0-new  1-cont  2-samecut
   ICHARG =      0    charge: 1-file 2-atom 10-const
   ISPIN  =      2    spin polarized calculation?
   LNONCOLLINEAR =      F non collinear calculations
   LSORBIT =      F    spin-orbit coupling
   INIWAV =      1    electr: 0-lowe 1-rand  2-diag
   LASPH  =      T    aspherical Exc in radial PAW
 Electronic Relaxation 1
   ENCUT  =  520.0 eV  38.22 Ry    6.18 a.u.  18.52 32.94 18.15*2*pi/ulx,y,z
   ENINI  =  520.0     initial cutoff
   ENAUG  =  605.4 eV  augmentation charge cutoff
   NELM   =    300;   NELMIN=  8; NELMDL=  0     # of ELM steps 
   EDIFF  = 0.1E-05   stopping-criterion for ELM
   LREAL  =      T    real-space projection
   NLSPLINE    = F    spline interpolate recip. space projectors
   LCOMPAT=      F    compatible to vasp.4.4
   GGA_COMPAT  = T    GGA compatible to vasp.4.4-vasp.4.6
   LMAXPAW     = -100 max onsite density
   LMAXMIX     =    4 max onsite mixed and CHGCAR
   VOSKOWN=      0    Vosko Wilk Nusair interpolation
   ROPT   =   -0.00025  -0.00025  -0.00025  -0.00025
 Ionic relaxation
   EDIFFG = -.2E-01   stopping-criterion for IOM
   NSW    =      1    number of steps for IOM
   NBLOCK =      1;   KBLOCK =      1    inner block; outer block 
   IBRION =      2    ionic relax: 0-MD 1-quasi-New 2-CG
   NFREE  =      1    steps in history (QN), initial steepest desc. (CG)
   ISIF   =      2    stress and relaxation
   IWAVPR =     11    prediction:  0-non 1-charg 2-wave 3-comb
   ISYM   =      0    0-nonsym 1-usesym 2-fastsym
   LCORR  =      T    Harris-Foulkes like correction to forces

   POTIM  = 0.5000    time-step for ionic-motion
   TEIN   =    0.0    initial temperature
   TEBEG  =    0.0;   TEEND  =   0.0 temperature during run
   SMASS  =  -3.00    Nose mass-parameter (am)
   estimated Nose-frequenzy (Omega)   =  0.10E-29 period in steps = 0.13E+47 mass=  -0.227E-26a.u.
   SCALEE = 1.0000    scale energy and forces
   NPACO  =    256;   APACO  = 10.0  distance and # of slots for P.C.
   PSTRESS=    0.0 pullay stress

  Mass of Ions in am
   POMASS =  55.85 16.00 30.97 22.99
  Ionic Valenz
   ZVAL   =  14.00  6.00  5.00  7.00
  Atomic Wigner-Seitz radii
   RWIGS  =  -1.00 -1.00 -1.00 -1.00
  virtual crystal weights 
   VCA    =   1.00  1.00  1.00  1.00
   NELECT =    1039.0000    total number of electrons
   NUPDOWN=     119.0000    fix difference up-down

 DOS related values:
   EMIN   =  10.00;   EMAX   =-10.00  energy-range for DOS
   EFERMI =   0.00;   METHOD = LEGACY      
   ISMEAR =     0;   SIGMA  =   0.05  broadening in eV -4-tet -1-fermi 0-gaus

 Electronic relaxation 2 (details)
   IALGO  =     58    algorithm
   LDIAG  =      T    sub-space diagonalisation (order eigenvalues)
   LSUBROT=      F    optimize rotation matrix (better conditioning)
   TURBO    =      0    0=normal 1=particle mesh
   IRESTART =      0    0=no restart 2=restart with 2 vectors
   NREBOOT  =      0    no. of reboots
   NMIN     =      0    reboot dimension
   EREF     =   0.00    reference energy to select bands
   IMIX   =      4    mixing-type and parameters
     AMIX     =   0.40;   BMIX     =  1.00
     AMIX_MAG =   1.60;   BMIX_MAG =  1.00
     AMIN     =   0.10
     WC   =   100.;   INIMIX=   1;  MIXPRE=   1;  MAXMIX= -45

 Intra band minimization:
   WEIMIN = 0.0010     energy-eigenvalue tresh-hold
   EBREAK =  0.36E-09  absolut break condition
   DEPER  =   0.30     relativ break condition  

   TIME   =   0.05     timestep for ELM

  volume/ion in A,a.u.               =      11.89        80.21
  Fermi-wavevector in a.u.,A,eV,Ry     =   1.382993  2.613477 26.023433  1.912668
  Thomas-Fermi vector in A             =   2.507632

 Write flags
   LWAVE        =      T    write WAVECAR
   LDOWNSAMPLE  =      F    k-point downsampling of WAVECAR
   LCHARG       =      T    write CHGCAR
   LVTOT        =      F    write LOCPOT, total local potential
   LVHAR        =      F    write LOCPOT, Hartree potential only
   LELF         =      F    write electronic localiz. function (ELF)
   LORBIT       =     12    0 simple, 1 ext, 2 COOP (PROOUT), +10 PAW based schemes


 Dipole corrections
   LMONO  =      F    monopole corrections only (constant potential shift)
   LDIPOL =      F    correct potential (dipole corrections)
   IDIPOL =      0    1-x, 2-y, 3-z, 4-all directions 
   EPSILON=  1.0000000 bulk dielectric constant

 LDA+U is selected, type is set to LDAUTYPE =  2
   angular momentum for each species LDAUL =     2   -1   -1   -1
   U (eV)           for each species LDAUU =   5.3  0.0  0.0  0.0
   J (eV)           for each species LDAUJ =   0.0  0.0  0.0  0.0
 Exchange correlation treatment:
   GGA     =    PE    GGA type
   LEXCH   =     8    internal setting for exchange type
   LIBXC   =     F    Libxc                    
   VOSKOWN =     0    Vosko Wilk Nusair interpolation
   LHFCALC =     F    Hartree Fock is set to
   LHFONE  =     F    Hartree Fock one center treatment
   AEXX    =    0.0000 exact exchange contribution

 Linear response parameters
   LEPSILON=     F    determine dielectric tensor
   LRPA    =     F    only Hartree local field effects (RPA)
   LNABLA  =     F    use nabla operator in PAW spheres
   LVEL    =     F    velocity operator in full k-point grid
   CSHIFT  =0.1000    complex shift for real part using Kramers Kronig
   OMEGAMAX=  -1.0    maximum frequency
   DEG_THRESHOLD= 0.2000000E-02 threshold for treating states as degnerate
   RTIME   =   -0.100 relaxation time in fs
  (WPLASMAI=    0.000 imaginary part of plasma frequency in eV, 0.658/RTIME)
   DFIELD  = 0.0000000 0.0000000 0.0000000 field for delta impulse in time

  Optional k-point grid parameters
   LKPOINTS_OPT  =     F    use optional k-point grid
   KPOINTS_OPT_MODE=     1    mode for optional k-point grid

 Orbital magnetization related:
   ORBITALMAG=     F  switch on orbital magnetization
   LCHIMAG   =     F  perturbation theory with respect to B field
   DQ        =  0.001000  dq finite difference perturbation B field
   LLRAUG    =     F  two centre corrections for induced B field
   LBONE     =     F  B-component reconstruction in AE one-centre
   LVGVCALC  =     T  calculate vGv susceptibility
   LVGVAPPL  =     F  apply vGv susceptibility instead of pGv for G=0

 Random number generation:
   RANDOM_GENERATOR = DEFAULT
   PCG_SEED         = not used


--------------------------------------------------------------------------------------------------------


 conjugate gradient relaxation of ions
 charge density and potential will be updated during run
 spin polarized calculation
 Conjugate gradient for all bands (Freysoldt, et al. PRB 79, 241103 (2009))
 preconditioned conjugated gradient                                        
 perform sub-space diagonalisation
    before iterative eigenvector-optimisation
 modified Broyden-mixing scheme, WC =      100.0
 initial mixing is a Kerker type mixing with AMIX =  0.4000 and BMIX =      1.0000
 Hartree-type preconditioning will be used
 using additional bands          176
 real space projection scheme for non local part
 use partial core corrections
 no Harris-corrections to forces 
 use gradient corrections 
 use of overlap-Matrix (Vanderbilt PP)
 Gauss-broadening in eV      SIGMA  =   0.05


--------------------------------------------------------------------------------------------------------


  energy-cutoff  :      520.00
  volume of cell :     1723.38
      direct lattice vectors                 reciprocal lattice vectors
     9.962489075 -0.000069663 -0.000154526     0.100376522  0.000000553 -0.000000819
    -0.000097698 17.717656860 -0.000226836     0.000000395  0.056440872 -0.000000631
     0.000079674  0.000109170  9.763519320     0.000001589  0.000001311  0.102422084

  length of vectors
     9.962489076 17.717656862  9.763519321     0.100376522  0.056440872  0.102422084



 old parameters found on file WAVECAR:
  energy-cutoff  :      520.00
  volume of cell :     1723.38
      direct lattice vectors                 reciprocal lattice vectors
     9.962489075 -0.000069663 -0.000154526     0.100376522  0.000000553 -0.000000819
    -0.000097698 17.717656860 -0.000226836     0.000000395  0.056440872 -0.000000631
     0.000079674  0.000109170  9.763519320     0.000001589  0.000001311  0.102422084

  length of vectors


 k-points in units of 2pi/SCALE and weight: KPOINTS created by Atomic Simulation Env
   0.00000000  0.00000000  0.00000000       0.111
   0.03345884  0.00000018 -0.00000027       0.222
   0.00000053  0.00000044  0.03414069       0.222
   0.03345937  0.00000062  0.03414042       0.222
  -0.03345831  0.00000025  0.03414097       0.222

 k-points in reciprocal lattice and weights: KPOINTS created by Atomic Simulation Env
   0.00000000  0.00000000  0.00000000       0.111
   0.33333333  0.00000000  0.00000000       0.222
   0.00000000  0.00000000  0.33333333       0.222
   0.33333333  0.00000000  0.33333333       0.222
  -0.33333333  0.00000000  0.33333333       0.222

 position of ions in fractional coordinates (direct lattice) 
   0.27487731  0.08363949  0.47811898
   0.22746342  0.24881156  0.22745976
   0.72654298  0.24869850  0.02040770
   0.77515420  0.08235472  0.27070683
   0.27489453  0.08267131  0.97817317
   0.22569404  0.24790590  0.72974071
   0.72803922  0.24948026  0.52083688
   0.77422121  0.08315382  0.77061266
   0.27129728  0.41425175  0.48865037
   0.22149261  0.58639076  0.22959433
   0.72459346  0.58285583  0.01924297
   0.78675232  0.41408598  0.27853561
   0.27528795  0.41450195  0.97632268
   0.22344295  0.58481705  0.73366940
   0.72559933  0.58290232  0.52169668
   0.77804918  0.41571989  0.76637424
   0.27349493  0.75228779  0.48009235
   0.22588098  0.91723022  0.22852804
   0.72538469  0.91672417  0.02084958
   0.77404276  0.75110940  0.27054980
   0.27458142  0.75165828  0.97913638
   0.22513858  0.91717682  0.72860496
   0.72531571  0.91685817  0.52111587
   0.77355849  0.75046320  0.77083107
   0.12272142  0.08292379  0.35620777
   0.38068510  0.24807773  0.10613780
   0.87826287  0.24790611  0.14423990
   0.62122817  0.08241525  0.39166873
   0.44524780  0.08234881  0.07541640
   0.05780091  0.24757005  0.32399250
   0.55613204  0.24836220  0.42533051
   0.94604752  0.08161977  0.17218994
   0.17038077  0.01479215  0.12862504
   0.33529733  0.31923850  0.38018624
   0.83530992  0.17715754  0.37074360
   0.66923940  0.15016062  0.12032922
   0.83388044  0.31177107  0.37675326
   0.66921247  0.01473930  0.12003053
   0.17014001  0.15008481  0.12772071
   0.33034635  0.18323287  0.37911531
   0.12177741  0.08239191  0.85688397
   0.37759542  0.25021645  0.60746177
   0.88084547  0.24840359  0.64243382
   0.62163602  0.08264825  0.89203968
   0.44523133  0.08375923  0.57522265
   0.05607398  0.24838104  0.82698439
   0.55538891  0.24792522  0.92031571
   0.94508732  0.08246915  0.67369260
   0.16922200  0.01499641  0.62842184
   0.33007290  0.31581025  0.87814941
   0.83126732  0.18143023  0.87066874
   0.67047919  0.15022155  0.62010287
   0.83318212  0.31721018  0.86872149
   0.66841585  0.01495171  0.62023933
   0.16923382  0.15026251  0.62882791
   0.33086281  0.18072745  0.87822442
   0.12584965  0.41543846  0.35937527
   0.38241479  0.58171477  0.11202108
   0.87488936  0.58393283  0.14377208
   0.61490581  0.41469185  0.39442989
   0.45051552  0.41189160  0.06420363
   0.05302315  0.58530800  0.32486467
   0.54950639  0.58118727  0.42437596
   0.95621209  0.41853324  0.16632271
   0.17919535  0.34913095  0.13120240
   0.32891987  0.65304932  0.38272405
   0.82897557  0.52003045  0.37562217
   0.66358363  0.48446655  0.10932123
   0.83076557  0.65485140  0.37019180
   0.67303080  0.34673452  0.10826895
   0.18334017  0.48420924  0.13545887
   0.32219347  0.51828519  0.39041748
   0.11850200  0.41627874  0.86115363
   0.37861913  0.58712426  0.61465793
   0.87915771  0.58460939  0.64257509
   0.62279304  0.41570638  0.88000120
   0.44413272  0.41756934  0.58219369
   0.05343124  0.58437646  0.82853010
   0.55305708  0.58541741  0.92205257
   0.94688282  0.41732872  0.67135143
   0.16950250  0.34904371  0.63349907
   0.32676222  0.65092953  0.88539985
   0.83029755  0.51585581  0.86918624
   0.67077795  0.48397008  0.61937787
   0.82903199  0.65159897  0.87061181
   0.67013687  0.34827825  0.62075761
   0.17076906  0.48481327  0.63522302
   0.32959812  0.51582617  0.88237112
   0.12115869  0.75110181  0.35749886
   0.37886891  0.91650120  0.10694606
   0.87816506  0.91645456  0.14239194
   0.61989854  0.75063253  0.39142130
   0.44494588  0.75022863  0.07591100
   0.05497883  0.91660910  0.32543824
   0.55479439  0.91656070  0.42379586
   0.94537572  0.75108421  0.17258699
   0.16956841  0.68309998  0.13000656
   0.33113938  0.98475279  0.37914046
   0.83080795  0.84887032  0.37059631
   0.66908559  0.81792164  0.11995144
   0.83089147  0.98410458  0.37081355
   0.66859092  0.68235903  0.11988596
   0.16994451  0.81834207  0.12909410
   0.33034873  0.84946136  0.37926619
   0.12124820  0.75097939  0.85826257
   0.37825706  0.91678366  0.60738860
   0.87814139  0.91655519  0.64225745
   0.62070510  0.75050880  0.89183728
   0.44482157  0.75077133  0.57611955
   0.05454468  0.91658977  0.82562922
   0.55499682  0.91658500  0.92299701
   0.94458159  0.75061634  0.67472145
   0.16843771  0.68274956  0.63098262
   0.33075276  0.98415708  0.87860951
   0.83035935  0.84890192  0.87040703
   0.66958137  0.81766914  0.62006682
   0.83046299  0.98428808  0.87038168
   0.66820905  0.68212238  0.61892493
   0.16866552  0.81817847  0.62950722
   0.33090659  0.84894126  0.87879198
   0.09632955  0.08256148  0.20214443
   0.40564393  0.25021678  0.45373560
   0.90623570  0.24621577  0.29797139
   0.59593192  0.08260155  0.04619549
   0.09559018  0.08249625  0.70290564
   0.40555237  0.24833764  0.95183318
   0.90547080  0.24889762  0.79657081
   0.59604525  0.08299652  0.54577329
   0.10215878  0.41673545  0.20414379
   0.39986673  0.58624569  0.46074509
   0.90147110  0.58576677  0.29768372
   0.60310027  0.41370452  0.03407980
   0.09578824  0.41702648  0.70675004
   0.40377775  0.58341201  0.95577275
   0.90303458  0.58406764  0.79692526
   0.59464261  0.41586879  0.54823769
   0.09541098  0.75114446  0.20346923
   0.40432009  0.91707301  0.45335214
   0.90426263  0.91655728  0.29641293
   0.59561502  0.75012449  0.04611743
   0.09503466  0.75059948  0.70427065
   0.40458846  0.91665522  0.95283560
   0.90383813  0.91663593  0.79637474
   0.59540461  0.75031741  0.54568161
   0.47810707  0.47376965  0.25691693

 position of ions in cartesian coordinates  (Angst):
   2.73849213  1.48192888  4.66806247
   2.26609565  4.40836691  2.22071619
   7.23815380  4.40630625  0.19908225
   7.72247875  1.45910822  2.64291286
   2.73870366  1.46482954  9.55035139
   2.24850836  4.39237569  7.12474645
   7.25309989  4.42021180  5.08503180
   7.71322364  1.47332110  7.52375311
   2.70279467  7.33960488  4.77081147
   2.20657873 10.38947985  2.24148140
   7.21869902 10.32679122  0.18763493
   7.83799315  7.33660892  2.71927231
   2.74259052  7.34409079  9.53220879
   2.22604928 10.36165234  7.16302820
   7.22876002 10.32766962  5.09335131
   7.75132690  7.36561175  7.48229519
   2.72465499 13.32881027  4.68717798
   2.25026537 16.25117944  2.23099498
   7.22654913 16.24215610  0.20324524
   7.71134071 13.30787430  2.64122824
   2.73551900 13.31771123  9.55960399
   2.24290913 16.25028802  7.11350576
   7.22590173 16.24458480  5.08760481
   7.70655611 13.29647965  7.52573425
   1.22263105  1.46924566  3.47780367
   3.79255540  4.39534121  1.03616333
   8.74967149  4.39227000  1.40809707
   6.18900200  1.46020452  3.82395053
   4.43577432  1.45900522  0.73624196
   0.57584260  4.38639246  3.16324191
   5.54046900  4.40040393  4.15258034
   9.42499381  1.44606395  1.68101515
   1.69742536  0.26208439  1.25580340
   3.34039506  5.65617640  3.71183152
   8.32177815  3.13879874  3.61959303
   6.66728508  2.66046079  1.17469914
   8.30752435  5.52383587  3.67823813
   6.66703005  0.26111232  1.17181362
   1.69501347  2.65915328  1.24694332
   3.29108418  3.24647558  3.70140708
   1.21326630  1.45987662  8.36616572
   3.76181418  4.43328922  5.93084964
   8.77544024  4.40113835  6.27222258
   6.19310504  1.46438739  8.70933186
   4.43564991  1.48404910  5.61610966
   0.55867808  4.40081642  8.07421309
   5.53310502  4.39271579  8.98537815
   9.41546771  1.46116777  6.57744599
   1.68592094  0.26575808  6.13557926
   3.28838674  5.59549058  8.57370610
   8.28154319  3.21455579  8.50062146
   6.67967638  2.66159490  6.05424864
   8.30060603  5.62025799  8.48157840
   6.65913357  0.26493042  6.05561197
   1.68602548  2.66235648  6.13951321
   3.29626949  3.20213971  8.57446898
   1.25376377  7.36062646  3.50865369
   3.80975525 10.30660834  1.09352890
   8.71603013 10.34587634  1.40345379
   6.12598334  7.34736806  3.85083478
   4.48822078  7.29772961  0.62669032
   0.52821123 10.37031800  3.17168155
   5.47442842 10.29728475  4.14318612
   9.52622482  7.41537981  1.62365234
   1.78520805  6.18578416  1.28089033
   3.27682732 11.57052258  3.73653471
   8.25863917  9.21370440  3.66714828
   6.61090607  8.58357772  1.06714751
   8.27645848 11.60241501  3.61409792
   6.70503674  6.14328819  1.05690332
   1.82648790  8.57905518  1.32241718
   3.20982937  9.18281931  3.81168121
   1.18060280  7.37556955  8.40777738
   3.77198061 10.40250690  6.00103290
   8.75859320 10.35791748  6.27352587
   6.20459835  7.36539563  8.59171819
   4.42467300  7.39838290  5.68409595
   0.53231702 10.35386835  8.08922887
   5.50984138 10.37228689  9.00225983
   9.43332247  7.39409434  6.55451168
   1.68868321  6.18429407  6.18507506
   3.25537202 11.53302001  8.64442039
   8.27184912  9.13979322  8.48607135
   6.68262003  8.57483673  6.04709437
   8.25922787 11.54484423  8.49995936
   6.67624670  6.17069565  6.06059641
   1.70128812  8.58981262  6.20187585
   3.28363753  9.13930445  8.61487955
   1.20699724 13.30779475  3.49025788
   3.77439632 16.23823899  1.04390345
   8.74863163 16.23738175  1.38990290
   6.17569032 13.29944918  3.82138332
   4.43270126 13.29227079  0.74091955
   0.54766240 16.24019726  3.17720613
   5.52707723 16.23931551  4.13744540
   9.41823561 13.30740522  1.68473992
   1.68926702 12.10293346  1.26914038
   3.29890643 17.44753029  3.70147065
   8.27686170 15.03997565  3.61800328
   6.66568753 14.49162146  1.17085932
   8.27768061 17.43600994  3.62009361
   6.66077259 12.08976963  1.17025079
   1.69300069 14.49910620  1.26020088
   3.29104287 15.05048333  3.70272901
   1.20792885 13.30568034  8.37947412
   3.76834069 16.24329820  5.92998392
   8.74843563 16.23921934  6.27034939
   6.18376555 13.29731150  8.70720433
   4.43150263 13.30194075  5.62471530
   0.54337700 16.23990938  8.06083046
   5.52913375 16.23980056  9.01140545
   9.41036421 13.29917053  6.58733969
   1.67804245 12.09677959  6.16043014
   3.29509462 17.43703023  8.57804657
   8.27243236 15.04059011  8.49791502
   6.67066659 14.48720233  6.05374542
   8.27345168 17.43931565  8.49763672
   6.65700804 12.08563134  6.04262756
   1.68029865 14.49626237  6.14599423
   3.29664036 15.04132280  8.57985876
   0.95969010  1.46281137  1.97360744
   4.04123490  4.43327633  4.42993686
   9.02836297  4.36233587  2.90905356
   5.93696087  1.46346953  0.45091972
   0.95236404  1.46171040  6.86279934
   4.04036264  4.40003673  9.29312260
   9.02078211  4.40990648  7.77713812
   5.93812967  1.47052197  5.32855718
   1.01773126  7.38359093  1.99305156
   3.98364738 10.38692246  4.49829884
   8.98086246 10.37838429  2.90616859
   6.00834219  7.32983642  0.33255177
   0.95430487  7.38880262  6.90025827
   4.02265056 10.33677009  9.33151096
   8.99647858 10.34833414  7.78052318
   5.92412354  7.36823888  5.35254306
   0.95047364 13.30853540  1.98639068
   4.02798101 16.24840627  4.42604191
   9.00864062 16.23921683  2.89368576
   5.93373853 13.29041186  0.45000618
   0.94676458 13.29893423  6.87597518
   4.03069451 16.24105856  9.30275835
   9.00445141 16.24066484  7.77507256
   5.93168211 13.29388446  5.32751071
   4.76311062  8.39408287  2.50823205



--------------------------------------------------------------------------------------------------------


 k-point   1 :   0.0000 0.0000 0.0000  plane waves:   46385
 k-point   2 :   0.3333 0.0000 0.0000  plane waves:   46400
 k-point   3 :   0.0000 0.0000 0.3333  plane waves:   46458
 k-point   4 :   0.3333 0.0000 0.3333  plane waves:   46379
 k-point   5 :  -0.3333 0.0000 0.3333  plane waves:   46380

 maximum and minimum number of plane-waves per node :     11622    11582

 maximum number of plane-waves:     46458
 maximum index in each direction: 
   IXMAX=   18   IYMAX=   32   IZMAX=   18
   IXMIN=  -18   IYMIN=  -32   IZMIN=  -18


 real space projection operators:
  total allocation   :      46428.73 KBytes
  max/ min on nodes  :      11701.62      11532.42


 parallel 3D FFT for wavefunctions:
    minimum data exchange during FFTs selected (reduces bandwidth)
 parallel 3D FFT for charge:
    minimum data exchange during FFTs selected (reduces bandwidth)


 total amount of memory used by VASP MPI-rank0   264792. kBytes
=======================================================================

   base      :      30000. kBytes
   nonlr-proj:      30703. kBytes
   fftplans  :       9535. kBytes
   grid      :      26700. kBytes
   one-center:       1150. kBytes
   wavefun   :     166704. kBytes

     INWAV:  cpu time     17.6236: real time     35.4012
 Broyden mixing: mesh for mixing (old mesh)
   NGX = 37   NGY = 65   NGZ = 37
  (NGX  =160   NGY  =280   NGZ  =160)
  gives a total of  88985 points

 charge density for first step will be calculated from the start-wavefunctions


--------------------------------------------------------------------------------------------------------


 Maximum index for non-local projection operator         1621
 Maximum index for augmentation-charges          750 (set IRDMAX)


--------------------------------------------------------------------------------------------------------


 initial charge from wavefunction
 First call to EWALD:  gamma=   0.148
 Maximum number of real-space cells 3x 2x 3
 Maximum number of reciprocal cells 2x 4x 2

    FEWALD:  cpu time      0.0560: real time      0.0562


--------------------------------------- Ionic step        1  -------------------------------------------




--------------------------------------- Iteration      1(   1)  ---------------------------------------


    POTLOK:  cpu time      0.1136: real time      0.1141
    SETDIJ:  cpu time      0.4494: real time      0.4510
    TRIAL :  cpu time      7.4595: real time      7.5015
    CORREC:  cpu time     13.2675: real time     13.3329
    CHARGE:  cpu time      0.2540: real time      0.2563
    --------------------------------------------
      LOOP:  cpu time     21.5974: real time     21.7098

 eigenvalue-minimisations  :     0
 total energy-change (2. order) :-0.1020180E+04  (-0.3205244E-05)
 number of electron    1039.0000100 magnetization     119.0000044
 augmentation part      257.3530953 magnetization      80.9088033

 Free energy of the ion-electron system (eV)
  ---------------------------------------------------
  alpha Z        PSCENC =      2952.23721804
  Ewald energy   TEWEN  =    -62508.03602982
  -Hartree energ DENC   =    -37453.03666764
  -exchange      EXHF   =         0.00000000
  -V(xc)+E(xc)   XCENC  =      4603.99762848
  PAW double counting   =    159589.93941482  -161661.63862044
  entropy T*S    EENTRO =        -0.00000000
  eigenvalues    EBANDS =    -12019.08375655
  atomic energy  EATOM  =    105475.44126576
  ---------------------------------------------------
  free energy    TOTEN  =     -1020.17954734 eV

  energy without entropy =    -1020.17954734  energy(sigma->0) =    -1020.17954734


--------------------------------------------------------------------------------------------------------




--------------------------------------- Iteration      1(   2)  ---------------------------------------


    POTLOK:  cpu time      0.1113: real time      0.1119
    SETDIJ:  cpu time      0.4453: real time      0.4470
    TRIAL :  cpu time      7.3931: real time      7.4313
    CORREC:  cpu time     13.2535: real time     13.3168
    CHARGE:  cpu time      0.2551: real time      0.2576
    --------------------------------------------
      LOOP:  cpu time     21.4595: real time     21.5769

 eigenvalue-minimisations  :     0
 total energy-change (2. order) :-0.9300580E-05  (-0.2845922E-06)
 number of electron    1039.0000100 magnetization     119.0000044
 augmentation part      257.3531041 magnetization      80.9088093

 Free energy of the ion-electron system (eV)
  ---------------------------------------------------
  alpha Z        PSCENC =      2952.23721804
  Ewald energy   TEWEN  =    -62508.03602982
  -Hartree energ DENC   =    -37453.03203297
  -exchange      EXHF   =         0.00000000
  -V(xc)+E(xc)   XCENC  =      4603.99761303
  PAW double counting   =    159589.96243115  -161661.66124929
  entropy T*S    EENTRO =        -0.00000000
  eigenvalues    EBANDS =    -12019.08877256
  atomic energy  EATOM  =    105475.44126576
  ---------------------------------------------------
  free energy    TOTEN  =     -1020.17955664 eV

  energy without entropy =    -1020.17955664  energy(sigma->0) =    -1020.17955664


--------------------------------------------------------------------------------------------------------




--------------------------------------- Iteration      1(   3)  ---------------------------------------


    POTLOK:  cpu time      0.1087: real time      0.1092
    SETDIJ:  cpu time      0.4506: real time      0.4521
    TRIAL :  cpu time      7.3837: real time      7.4215
    CORREC:  cpu time      3.3042: real time      3.3199
    CHARGE:  cpu time      0.2546: real time      0.2567
    --------------------------------------------
      LOOP:  cpu time     11.5024: real time     11.5600

 eigenvalue-minimisations  :     0
 total energy-change (2. order) :-0.6932169E-05  (-0.1210506E-05)
 number of electron    1039.0000100 magnetization     119.0000044
 augmentation part      257.3531104 magnetization      80.9088076

 Free energy of the ion-electron system (eV)
  ---------------------------------------------------
  alpha Z        PSCENC =      2952.23721804
  Ewald energy   TEWEN  =    -62508.03602982
  -Hartree energ DENC   =    -37453.02868184
  -exchange      EXHF   =         0.00000000
  -V(xc)+E(xc)   XCENC  =      4603.99768342
  PAW double counting   =    159590.03784706  -161661.73703894
  entropy T*S    EENTRO =        -0.00000000
  eigenvalues    EBANDS =    -12019.09182726
  atomic energy  EATOM  =    105475.44126576
  ---------------------------------------------------
  free energy    TOTEN  =     -1020.17956358 eV

  energy without entropy =    -1020.17956358  energy(sigma->0) =    -1020.17956358


--------------------------------------------------------------------------------------------------------




--------------------------------------- Iteration      1(   4)  ---------------------------------------


    POTLOK:  cpu time      0.1076: real time      0.1082
    SETDIJ:  cpu time      0.4510: real time      0.4524
    TRIAL :  cpu time      7.3670: real time      7.4055
    CORREC:  cpu time      3.3019: real time      3.3180
    CHARGE:  cpu time      0.2535: real time      0.2571
    --------------------------------------------
      LOOP:  cpu time     11.4817: real time     11.5418

 eigenvalue-minimisations  :     0
 total energy-change (2. order) :-0.1200140E-05  (-0.6611255E-06)
 number of electron    1039.0000100 magnetization     119.0000044
 augmentation part      257.3531011 magnetization      80.9088010

 Free energy of the ion-electron system (eV)
  ---------------------------------------------------
  alpha Z        PSCENC =      2952.23721804
  Ewald energy   TEWEN  =    -62508.03602982
  -Hartree energ DENC   =    -37453.02968265
  -exchange      EXHF   =         0.00000000
  -V(xc)+E(xc)   XCENC  =      4603.99772278
  PAW double counting   =    159590.06874908  -161661.76817649
  entropy T*S    EENTRO =        -0.00000000
  eigenvalues    EBANDS =    -12019.09063149
  atomic energy  EATOM  =    105475.44126576
  ---------------------------------------------------
  free energy    TOTEN  =     -1020.17956478 eV

  energy without entropy =    -1020.17956478  energy(sigma->0) =    -1020.17956478


--------------------------------------------------------------------------------------------------------




--------------------------------------- Iteration      1(   5)  ---------------------------------------


    POTLOK:  cpu time      0.1082: real time      0.1088
    SETDIJ:  cpu time      0.4520: real time      0.4537
    TRIAL :  cpu time      7.3726: real time      7.4107
    CORREC:  cpu time      3.3284: real time      3.3444
    CHARGE:  cpu time      0.2560: real time      0.2582
    --------------------------------------------
      LOOP:  cpu time     11.5179: real time     11.5765

 eigenvalue-minimisations  :     0
 total energy-change (2. order) :-0.6639602E-06  (-0.3527276E-06)
 number of electron    1039.0000100 magnetization     119.0000044
 augmentation part      257.3530953 magnetization      80.9087982

 Free energy of the ion-electron system (eV)
  ---------------------------------------------------
  alpha Z        PSCENC =      2952.23721804
  Ewald energy   TEWEN  =    -62508.03602982
  -Hartree energ DENC   =    -37453.03033386
  -exchange      EXHF   =         0.00000000
  -V(xc)+E(xc)   XCENC  =      4603.99768552
  PAW double counting   =    159590.08546224  -161661.78455476
  entropy T*S    EENTRO =        -0.00000000
  eigenvalues    EBANDS =    -12019.09027856
  atomic energy  EATOM  =    105475.44126576
  ---------------------------------------------------
  free energy    TOTEN  =     -1020.17956544 eV

  energy without entropy =    -1020.17956544  energy(sigma->0) =    -1020.17956544


--------------------------------------------------------------------------------------------------------




--------------------------------------- Iteration      1(   6)  ---------------------------------------


    POTLOK:  cpu time      0.1084: real time      0.1089
    SETDIJ:  cpu time      0.4505: real time      0.4521
    TRIAL :  cpu time      7.3792: real time      7.4185
    CORREC:  cpu time      3.3074: real time      3.3251
    CHARGE:  cpu time      0.2552: real time      0.2584
    --------------------------------------------
      LOOP:  cpu time     11.5014: real time     11.5638

 eigenvalue-minimisations  :     0
 total energy-change (2. order) :-0.3616005E-06  (-0.2924024E-06)
 number of electron    1039.0000100 magnetization     119.0000044
 augmentation part      257.3531026 magnetization      80.9087990

 Free energy of the ion-electron system (eV)
  ---------------------------------------------------
  alpha Z        PSCENC =      2952.23721804
  Ewald energy   TEWEN  =    -62508.03602982
  -Hartree energ DENC   =    -37453.03038368
  -exchange      EXHF   =         0.00000000
  -V(xc)+E(xc)   XCENC  =      4603.99764807
  PAW double counting   =    159590.08737103  -161661.78624274
  entropy T*S    EENTRO =        -0.00000000
  eigenvalues    EBANDS =    -12019.09041247
  atomic energy  EATOM  =    105475.44126576
  ---------------------------------------------------
  free energy    TOTEN  =     -1020.17956580 eV

  energy without entropy =    -1020.17956580  energy(sigma->0) =    -1020.17956580


--------------------------------------------------------------------------------------------------------




--------------------------------------- Iteration      1(   7)  ---------------------------------------


    POTLOK:  cpu time      0.1104: real time      0.1111
    SETDIJ:  cpu time      0.4474: real time      0.4489
    TRIAL :  cpu time      7.3612: real time      7.3988
    CORREC:  cpu time      3.2973: real time      3.3129
    CHARGE:  cpu time      0.2548: real time      0.2569
    --------------------------------------------
      LOOP:  cpu time     11.6238: real time     12.0028

 eigenvalue-minimisations  :     0
 total energy-change (2. order) :-0.2827437E-06  (-0.2096022E-06)
 number of electron    1039.0000100 magnetization     119.0000044
 augmentation part      257.3531059 magnetization      80.9087984

 Free energy of the ion-electron system (eV)
  ---------------------------------------------------
  alpha Z        PSCENC =      2952.23721804
  Ewald energy   TEWEN  =    -62508.03602982
  -Hartree energ DENC   =    -37453.03095858
  -exchange      EXHF   =         0.00000000
  -V(xc)+E(xc)   XCENC  =      4603.99765755
  PAW double counting   =    159590.08051755  -161661.77963782
  entropy T*S    EENTRO =        -0.00000000
  eigenvalues    EBANDS =    -12019.08959876
  atomic energy  EATOM  =    105475.44126576
  ---------------------------------------------------
  free energy    TOTEN  =     -1020.17956609 eV

  energy without entropy =    -1020.17956609  energy(sigma->0) =    -1020.17956609


--------------------------------------------------------------------------------------------------------




--------------------------------------- Iteration      1(   8)  ---------------------------------------


    POTLOK:  cpu time      0.1079: real time      0.1085
    SETDIJ:  cpu time      0.4503: real time      0.4519
    TRIAL :  cpu time      7.3605: real time      7.3981
    CORREC:  cpu time      3.3201: real time      3.3398
    EDDIAG:  cpu time      2.2760: real time      2.2902
    CHARGE:  cpu time      0.2532: real time      0.2555
    --------------------------------------------
      LOOP:  cpu time     13.7687: real time     13.8446

 eigenvalue-minimisations  :     0
 total energy-change (2. order) :-0.2058805E-06  (-0.2406573E-06)
 number of electron    1039.0000100 magnetization     119.0000044
 augmentation part      257.3531020 magnetization      80.9087973

 Free energy of the ion-electron system (eV)
  ---------------------------------------------------
  alpha Z        PSCENC =      2952.23721804
  Ewald energy   TEWEN  =    -62508.03602982
  -Hartree energ DENC   =    -37453.03073284
  -exchange      EXHF   =         0.00000000
  -V(xc)+E(xc)   XCENC  =      4603.99766497
  PAW double counting   =    159590.06214660  -161661.76138048
  entropy T*S    EENTRO =        -0.00000000
  eigenvalues    EBANDS =    -12019.08971851
  atomic energy  EATOM  =    105475.44126576
  ---------------------------------------------------
  free energy    TOTEN  =     -1020.17956629 eV

  energy without entropy =    -1020.17956629  energy(sigma->0) =    -1020.17956629


--------------------------------------------------------------------------------------------------------


  average scaling for gradient   0.7892


 average (electrostatic) potential at core
  the test charge radii are     0.9500  0.7215  0.9587  0.9254
  (the norm of the test charge is              1.0000)
       1 -83.5097       2 -83.4675       3 -83.3703       4 -83.4137       5 -83.4693
       6 -83.4918       7 -83.3913       8 -83.4690       9 -83.4745      10 -83.6386
      11 -83.4650      12 -79.1862      13 -83.5578      14 -83.5803      15 -83.5361
      16 -83.4348      17 -83.5274      18 -83.5095      19 -83.4823      20 -83.4662
      21 -83.5233      22 -83.5145      23 -83.4941      24 -83.5167      25 -71.6033
      26 -71.5898      27 -71.4704      28 -71.5459      29 -71.6400      30 -71.6001
      31 -71.6216      32 -71.6087      33 -72.0221      34 -72.0026      35 -71.8858
      36 -71.9567      37 -71.7626      38 -71.9895      39 -72.0002      40 -72.0325
      41 -71.5951      42 -71.6104      43 -71.5462      44 -71.5778      45 -71.6533
      46 -71.6529      47 -71.5712      48 -71.6495      49 -72.0233      50 -72.0398
      51 -71.9872      52 -71.9654      53 -71.9174      54 -71.9874      55 -72.0411
      56 -72.0280      57 -71.5583      58 -71.8478      59 -71.5826      60 -71.2440
      61 -71.8459      62 -71.7503      63 -71.8610      64 -70.9717      65 -71.9653
      66 -72.1675      67 -71.8369      68 -71.8401      69 -71.9655      70 -71.7599
      71 -71.9830      72 -72.2572      73 -71.7543      74 -71.7872      75 -71.6304
      76 -71.6784      77 -71.6207      78 -71.7452      79 -71.6793      80 -71.7926
      81 -72.1704      82 -72.1248      83 -71.9900      84 -71.9707      85 -72.0337
      86 -71.9623      87 -72.1135      88 -72.0685      89 -71.6492      90 -71.6178
      91 -71.5998      92 -71.5957      93 -71.6897      94 -71.6696      95 -71.6745
      96 -71.6706      97 -72.1445      98 -72.0303      99 -72.0186     100 -72.0223
     101 -72.0125     102 -71.9771     103 -72.0758     104 -72.0589     105 -71.6421
     106 -71.6267     107 -71.6086     108 -71.6217     109 -71.6819     110 -71.6731
     111 -71.6649     112 -71.6930     113 -72.0337     114 -72.0384     115 -72.0147
     116 -72.0317     117 -71.9990     118 -72.0154     119 -72.0824     120 -72.0514
     121 -86.7284     122 -86.7362     123 -86.5972     124 -86.7113     125 -86.7444
     126 -86.7294     127 -86.6872     128 -86.7118     129 -86.4529     130 -86.9392
     131 -86.6963     132 -86.7227     133 -86.8581     134 -86.8706     135 -86.7610
     136 -86.6167     137 -86.8030     138 -86.7645     139 -86.7456     140 -86.7488
     141 -86.7792     142 -86.7606     143 -86.7446     144 -86.7517     145 -44.2512



 E-fermi :   3.6762     XC(G=0): -10.0280     alpha+bet :-10.1256

 Fermi energy:         2.9423042380

 spin component 1

 k-point     1 :       0.0000    0.0000    0.0000
  band No.  band energies     occupation 
      1     -55.6695      1.00000
      2     -55.5983      1.00000
      3     -55.5752      1.00000
      4     -55.5452      1.00000
      5     -55.5397      1.00000
      6     -55.5334      1.00000
      7     -55.5301      1.00000
      8     -55.5293      1.00000
      9     -55.5278      1.00000
     10     -55.5243      1.00000
     11     -55.5102      1.00000
     12     -55.5068      1.00000
     13     -55.4970      1.00000
     14     -55.4933      1.00000
     15     -55.4892      1.00000
     16     -55.4873      1.00000
     17     -55.4836      1.00000
     18     -55.4832      1.00000
     19     -55.4808      1.00000
     20     -55.4780      1.00000
     21     -55.4591      1.00000
     22     -55.4589      1.00000
     23     -55.4337      1.00000
     24     -55.4266      1.00000
     25     -55.4195      1.00000
     26     -55.4077      1.00000
     27     -55.4000      1.00000
     28     -55.3972      1.00000
     29     -55.3956      1.00000
     30     -55.3945      1.00000
     31     -55.3925      1.00000
     32     -55.3918      1.00000
     33     -55.3911      1.00000
     34     -55.3891      1.00000
     35     -55.3782      1.00000
     36     -55.3780      1.00000
     37     -55.3771      1.00000
     38     -55.3728      1.00000
     39     -55.3696      1.00000
     40     -55.3691      1.00000
     41     -55.3597      1.00000
     42     -55.3509      1.00000
     43     -55.3504      1.00000
     44     -55.3439      1.00000
     45     -55.3368      1.00000
     46     -55.3265      1.00000
     47     -55.3259      1.00000
     48     -55.3203      1.00000
     49     -55.3191      1.00000
     50     -55.3111      1.00000
     51     -55.3111      1.00000
     52     -55.3085      1.00000
     53     -55.2985      1.00000
     54     -55.2921      1.00000
     55     -55.2864      1.00000
     56     -55.2835      1.00000
     57     -55.2834      1.00000
     58     -55.2796      1.00000
     59     -55.2714      1.00000
     60     -55.2684      1.00000
     61     -55.2677      1.00000
     62     -55.2663      1.00000
     63     -55.2523      1.00000
     64     -55.2331      1.00000
     65     -55.2244      1.00000
     66     -55.2241      1.00000
     67     -55.2213      1.00000
     68     -55.2072      1.00000
     69     -55.1890      1.00000
     70     -51.9406      1.00000
     71     -50.3294      1.00000
     72     -50.0446      1.00000
     73     -18.8487      1.00000
     74     -18.6305      1.00000
     75     -18.5415      1.00000
     76     -18.5175      1.00000
     77     -18.4935      1.00000
     78     -18.4638      1.00000
     79     -18.4202      1.00000
     80     -18.3883      1.00000
     81     -18.3769      1.00000
     82     -18.3392      1.00000
     83     -18.3239      1.00000
     84     -18.3207      1.00000
     85     -18.3066      1.00000
     86     -18.2988      1.00000
     87     -18.2768      1.00000
     88     -18.2727      1.00000
     89     -18.2574      1.00000
     90     -18.2350      1.00000
     91     -18.2305      1.00000
     92     -18.2100      1.00000
     93     -18.1891      1.00000
     94     -18.1754      1.00000
     95     -18.1552      1.00000
     96     -18.1344      1.00000
     97     -18.0940      1.00000
     98     -18.0561      1.00000
     99     -18.0476      1.00000
    100     -16.2878      1.00000
    101     -16.2424      1.00000
    102     -16.2187      1.00000
    103     -16.2048      1.00000
    104     -16.1660      1.00000
    105     -16.1593      1.00000
    106     -16.1439      1.00000
    107     -16.1156      1.00000
    108     -16.0957      1.00000
    109     -16.0788      1.00000
    110     -16.0577      1.00000
    111     -16.0490      1.00000
    112     -16.0410      1.00000
    113     -16.0334      1.00000
    114     -16.0284      1.00000
    115     -16.0225      1.00000
    116     -16.0150      1.00000
    117     -15.9955      1.00000
    118     -15.9909      1.00000
    119     -15.9861      1.00000
    120     -15.9722      1.00000
    121     -15.9697      1.00000
    122     -15.9568      1.00000
    123     -15.9455      1.00000
    124     -15.9294      1.00000
    125     -15.9096      1.00000
    126     -15.8918      1.00000
    127     -15.8827      1.00000
    128     -15.8688      1.00000
    129     -15.8415      1.00000
    130     -15.8320      1.00000
    131     -15.8229      1.00000
    132     -15.8137      1.00000
    133     -15.8126      1.00000
    134     -15.8021      1.00000
    135     -15.7935      1.00000
    136     -15.7770      1.00000
    137     -15.7677      1.00000
    138     -15.7595      1.00000
    139     -15.7556      1.00000
    140     -15.7513      1.00000
    141     -15.7446      1.00000
    142     -15.7384      1.00000
    143     -15.7256      1.00000
    144     -15.7200      1.00000
    145     -15.7134      1.00000
    146     -15.7053      1.00000
    147     -15.6995      1.00000
    148     -15.6946      1.00000
    149     -15.6884      1.00000
    150     -15.6824      1.00000
    151     -15.6772      1.00000
    152     -15.6634      1.00000
    153     -15.6544      1.00000
    154     -15.6507      1.00000
    155     -15.6450      1.00000
    156     -15.6397      1.00000
    157     -15.6285      1.00000
    158     -15.6218      1.00000
    159     -15.6154      1.00000
    160     -15.6128      1.00000
    161     -15.6092      1.00000
    162     -15.6048      1.00000
    163     -15.5956      1.00000
    164     -15.5907      1.00000
    165     -15.5813      1.00000
    166     -15.5610      1.00000
    167     -15.5443      1.00000
    168     -15.5418      1.00000
    169     -15.4961      1.00000
    170     -15.3902      1.00000
    171     -15.2649      1.00000
    172      -7.0560      1.00000
    173      -7.0257      1.00000
    174      -7.0045      1.00000
    175      -6.9916      1.00000
    176      -6.9600      1.00000
    177      -6.9389      1.00000
    178      -6.9312      1.00000
    179      -6.9209      1.00000
    180      -6.9031      1.00000
    181      -6.8709      1.00000
    182      -6.8309      1.00000
    183      -6.6292      1.00000
    184      -6.4194      1.00000
    185      -6.3454      1.00000
    186      -6.3217      1.00000
    187      -6.2222      1.00000
    188      -6.1979      1.00000
    189      -6.1834      1.00000
    190      -6.1578      1.00000
    191      -6.1289      1.00000
    192      -6.1161      1.00000
    193      -6.1105      1.00000
    194      -6.0842      1.00000
    195      -6.0793      1.00000
    196      -6.0685      1.00000
    197      -6.0564      1.00000
    198      -6.0381      1.00000
    199      -6.0232      1.00000
    200      -6.0178      1.00000
    201      -5.9797      1.00000
    202      -5.9631      1.00000
    203      -5.9493      1.00000
    204      -5.9166      1.00000
    205      -5.8977      1.00000
    206      -5.8968      1.00000
    207      -5.8664      1.00000
    208      -5.8332      1.00000
    209      -5.8258      1.00000
    210      -5.8189      1.00000
    211      -5.8130      1.00000
    212      -5.7590      1.00000
    213      -5.7196      1.00000
    214      -5.6540      1.00000
    215      -5.6172      1.00000
    216      -5.6094      1.00000
    217      -5.5459      1.00000
    218      -5.5320      1.00000
    219      -5.5041      1.00000
    220      -5.4724      1.00000
    221      -5.4311      1.00000
    222      -5.4280      1.00000
    223      -5.4207      1.00000
    224      -5.4090      1.00000
    225      -5.3224      1.00000
    226      -5.3002      1.00000
    227      -5.2874      1.00000
    228      -5.2660      1.00000
    229      -5.2592      1.00000
    230      -5.2546      1.00000
    231      -5.2451      1.00000
    232      -5.2208      1.00000
    233      -5.2110      1.00000
    234      -5.2024      1.00000
    235      -5.1939      1.00000
    236      -5.1840      1.00000
    237      -5.1800      1.00000
    238      -5.1788      1.00000
    239      -5.1671      1.00000
    240      -5.1528      1.00000
    241      -5.1450      1.00000
    242      -5.1361      1.00000
    243      -5.1323      1.00000
    244      -5.1228      1.00000
    245      -5.1159      1.00000
    246      -5.1124      1.00000
    247      -5.1045      1.00000
    248      -5.1016      1.00000
    249      -5.0942      1.00000
    250      -5.0870      1.00000
    251      -5.0849      1.00000
    252      -5.0764      1.00000
    253      -5.0741      1.00000
    254      -5.0701      1.00000
    255      -5.0670      1.00000
    256      -5.0600      1.00000
    257      -5.0474      1.00000
    258      -5.0439      1.00000
    259      -5.0390      1.00000
    260      -5.0299      1.00000
    261      -5.0289      1.00000
    262      -5.0242      1.00000
    263      -5.0218      1.00000
    264      -5.0166      1.00000
    265      -5.0132      1.00000
    266      -5.0041      1.00000
    267      -5.0000      1.00000
    268      -4.9927      1.00000
    269      -4.9901      1.00000
    270      -4.9880      1.00000
    271      -4.9843      1.00000
    272      -4.9814      1.00000
    273      -4.9717      1.00000
    274      -4.9694      1.00000
    275      -4.9630      1.00000
    276      -4.9563      1.00000
    277      -4.9494      1.00000
    278      -4.9429      1.00000
    279      -4.9327      1.00000
    280      -4.9302      1.00000
    281      -4.9218      1.00000
    282      -4.9163      1.00000
    283      -4.9091      1.00000
    284      -4.9036      1.00000
    285      -4.8917      1.00000
    286      -4.8776      1.00000
    287      -4.8752      1.00000
    288      -4.8675      1.00000
    289      -4.8662      1.00000
    290      -4.8558      1.00000
    291      -4.8364      1.00000
    292      -4.8320      1.00000
    293      -4.8103      1.00000
    294      -4.8066      1.00000
    295      -4.7983      1.00000
    296      -4.7946      1.00000
    297      -4.7745      1.00000
    298      -4.7364      1.00000
    299      -4.6775      1.00000
    300      -4.6299      1.00000
    301      -4.6105      1.00000
    302      -4.4797      1.00000
    303      -4.4026      1.00000
    304      -4.3368      1.00000
    305      -4.3118      1.00000
    306      -4.3039      1.00000
    307      -4.2668      1.00000
    308      -4.0869      1.00000
    309      -4.0354      1.00000
    310      -3.9833      1.00000
    311      -3.9685      1.00000
    312      -3.9484      1.00000
    313      -3.9198      1.00000
    314      -3.8506      1.00000
    315      -3.5889      1.00000
    316      -3.5629      1.00000
    317      -3.5187      1.00000
    318      -3.4821      1.00000
    319      -3.4307      1.00000
    320      -3.4129      1.00000
    321      -3.3825      1.00000
    322      -3.3622      1.00000
    323      -3.3248      1.00000
    324      -3.2997      1.00000
    325      -3.2627      1.00000
    326      -3.2373      1.00000
    327      -3.2000      1.00000
    328      -3.1804      1.00000
    329      -3.1624      1.00000
    330      -3.0875      1.00000
    331      -3.0219      1.00000
    332      -3.0073      1.00000
    333      -2.9858      1.00000
    334      -2.9350      1.00000
    335      -2.9273      1.00000
    336      -2.9038      1.00000
    337      -2.8853      1.00000
    338      -2.8761      1.00000
    339      -2.8509      1.00000
    340      -2.8452      1.00000
    341      -2.8356      1.00000
    342      -2.8069      1.00000
    343      -2.7861      1.00000
    344      -2.7800      1.00000
    345      -2.7710      1.00000
    346      -2.7574      1.00000
    347      -2.7545      1.00000
    348      -2.7404      1.00000
    349      -2.7307      1.00000
    350      -2.7140      1.00000
    351      -2.6908      1.00000
    352      -2.6776      1.00000
    353      -2.6736      1.00000
    354      -2.6682      1.00000
    355      -2.6570      1.00000
    356      -2.6408      1.00000
    357      -2.6186      1.00000
    358      -2.5909      1.00000
    359      -2.5692      1.00000
    360      -2.5408      1.00000
    361      -2.4994      1.00000
    362      -2.4839      1.00000
    363      -2.4718      1.00000
    364      -2.4273      1.00000
    365      -2.4125      1.00000
    366      -2.4012      1.00000
    367      -2.3923      1.00000
    368      -2.3796      1.00000
    369      -2.3722      1.00000
    370      -2.3433      1.00000
    371      -2.3249      1.00000
    372      -2.3156      1.00000
    373      -2.3125      1.00000
    374      -2.2671      1.00000
    375      -2.2531      1.00000
    376      -2.2428      1.00000
    377      -2.2354      1.00000
    378      -2.2146      1.00000
    379      -2.1989      1.00000
    380      -2.1296      1.00000
    381      -1.9893      1.00000
    382      -1.8527      1.00000
    383      -1.6919      1.00000
    384      -1.6125      1.00000
    385      -1.5453      1.00000
    386      -1.4904      1.00000
    387      -1.4500      1.00000
    388      -1.4139      1.00000
    389      -1.4052      1.00000
    390      -1.3465      1.00000
    391      -1.3277      1.00000
    392      -1.3204      1.00000
    393      -1.2320      1.00000
    394      -1.1714      1.00000
    395      -1.1567      1.00000
    396      -1.1530      1.00000
    397      -1.1020      1.00000
    398      -1.0812      1.00000
    399      -1.0507      1.00000
    400      -1.0363      1.00000
    401      -0.9944      1.00000
    402      -0.9787      1.00000
    403      -0.9636      1.00000
    404      -0.9562      1.00000
    405      -0.9350      1.00000
    406      -0.8857      1.00000
    407      -0.8694      1.00000
    408      -0.8618      1.00000
    409      -0.8497      1.00000
    410      -0.8346      1.00000
    411      -0.8183      1.00000
    412      -0.8028      1.00000
    413      -0.7754      1.00000
    414      -0.7617      1.00000
    415      -0.7404      1.00000
    416      -0.6653      1.00000
    417      -0.6537      1.00000
    418      -0.6072      1.00000
    419      -0.5898      1.00000
    420      -0.5822      1.00000
    421      -0.5426      1.00000
    422      -0.5270      1.00000
    423      -0.5191      1.00000
    424      -0.4997      1.00000
    425      -0.4904      1.00000
    426      -0.4749      1.00000
    427      -0.4441      1.00000
    428      -0.4235      1.00000
    429      -0.4144      1.00000
    430      -0.3526      1.00000
    431      -0.3433      1.00000
    432      -0.3314      1.00000
    433      -0.3232      1.00000
    434      -0.3119      1.00000
    435      -0.2711      1.00000
    436      -0.2576      1.00000
    437      -0.2491      1.00000
    438      -0.2241      1.00000
    439      -0.2183      1.00000
    440      -0.2098      1.00000
    441      -0.1903      1.00000
    442      -0.1839      1.00000
    443      -0.1608      1.00000
    444      -0.1549      1.00000
    445      -0.1477      1.00000
    446      -0.1362      1.00000
    447      -0.1315      1.00000
    448      -0.1202      1.00000
    449      -0.0875      1.00000
    450      -0.0716      1.00000
    451      -0.0365      1.00000
    452      -0.0120      1.00000
    453      -0.0008      1.00000
    454       0.0200      1.00000
    455       0.0382      1.00000
    456       0.0474      1.00000
    457       0.0574      1.00000
    458       0.0789      1.00000
    459       0.0830      1.00000
    460       0.0971      1.00000
    461       0.1243      1.00000
    462       0.1547      1.00000
    463       0.1824      1.00000
    464       0.1969      1.00000
    465       0.2037      1.00000
    466       0.2119      1.00000
    467       0.2347      1.00000
    468       0.2473      1.00000
    469       0.2620      1.00000
    470       0.2810      1.00000
    471       0.2852      1.00000
    472       0.3241      1.00000
    473       0.3598      1.00000
    474       0.3728      1.00000
    475       0.4104      1.00000
    476       0.4164      1.00000
    477       0.4452      1.00000
    478       0.4506      1.00000
    479       0.4580      1.00000
    480       0.4684      1.00000
    481       0.4989      1.00000
    482       0.5052      1.00000
    483       0.5192      1.00000
    484       0.5340      1.00000
    485       0.5552      1.00000
    486       0.5822      1.00000
    487       0.6705      1.00000
    488       0.6760      1.00000
    489       0.7069      1.00000
    490       0.7545      1.00000
    491       0.7584      1.00000
    492       0.7947      1.00000
    493       0.8020      1.00000
    494       0.8172      1.00000
    495       0.8384      1.00000
    496       0.8449      1.00000
    497       0.8778      1.00000
    498       0.8883      1.00000
    499       0.8946      1.00000
    500       0.9050      1.00000
    501       0.9271      1.00000
    502       0.9317      1.00000
    503       0.9518      1.00000
    504       0.9699      1.00000
    505       0.9734      1.00000
    506       0.9833      1.00000
    507       0.9992      1.00000
    508       1.0200      1.00000
    509       1.0449      1.00000
    510       1.0820      1.00000
    511       1.0899      1.00000
    512       1.1073      1.00000
    513       1.1316      1.00000
    514       1.1381      1.00000
    515       1.1495      1.00000
    516       1.1854      1.00000
    517       1.1986      1.00000
    518       1.2018      1.00000
    519       1.2111      1.00000
    520       1.2342      1.00000
    521       1.2711      1.00000
    522       1.2914      1.00000
    523       1.3436      1.00000
    524       1.3572      1.00000
    525       1.3741      1.00000
    526       1.3831      1.00000
    527       1.4037      1.00000
    528       1.4201      1.00000
    529       1.4469      1.00000
    530       1.4670      1.00000
    531       1.4762      1.00000
    532       1.4806      1.00000
    533       1.4943      1.00000
    534       1.5110      1.00000
    535       1.5117      1.00000
    536       1.5159      1.00000
    537       1.5320      1.00000
    538       1.5370      1.00000
    539       1.5534      1.00000
    540       1.5620      1.00000
    541       1.5712      1.00000
    542       1.5771      1.00000
    543       1.5819      1.00000
    544       1.5971      1.00000
    545       1.6048      1.00000
    546       1.6144      1.00000
    547       1.6222      1.00000
    548       1.6230      1.00000
    549       1.6395      1.00000
    550       1.6463      1.00000
    551       1.6627      1.00000
    552       1.6730      1.00000
    553       1.6873      1.00000
    554       1.6964      1.00000
    555       1.7240      1.00000
    556       1.7404      1.00000
    557       1.7607      1.00000
    558       1.7658      1.00000
    559       1.7885      1.00000
    560       1.8042      1.00000
    561       1.8119      1.00000
    562       1.8390      1.00000
    563       1.8427      1.00000
    564       1.8692      1.00000
    565       1.8708      1.00000
    566       1.9096      1.00000
    567       1.9278      1.00000
    568       1.9537      1.00000
    569       1.9625      1.00000
    570       1.9815      1.00000
    571       1.9913      1.00000
    572       2.0203      1.00000
    573       2.0274      1.00000
    574       2.0385      1.00000
    575       2.0666      1.00000
    576       2.0880      1.00000
    577       2.1069      1.00000
    578       2.1552      1.00000
    579       2.6271      1.00000
    580       7.4182      0.00000
    581       8.2668      0.00000
    582       8.3042      0.00000
    583       9.3949      0.00000
    584       9.4228      0.00000
    585       9.5137      0.00000
    586       9.8396      0.00000
    587       9.8925      0.00000
    588       9.9393      0.00000
    589       9.9717      0.00000
    590       9.9978      0.00000
    591      10.0094      0.00000
    592      10.0183      0.00000
    593      10.0426      0.00000
    594      10.0639      0.00000
    595      10.0723      0.00000
    596      10.2568      0.00000
    597      10.2817      0.00000
    598      10.2867      0.00000
    599      10.3220      0.00000
    600      10.5798      0.00000
    601      10.6318      0.00000
    602      10.6537      0.00000
    603      10.6634      0.00000
    604      10.6941      0.00000
    605      10.7188      0.00000
    606      10.7496      0.00000
    607      10.7594      0.00000
    608      10.7737      0.00000
    609      10.8015      0.00000
    610      10.8147      0.00000
    611      10.8309      0.00000
    612      10.8567      0.00000
    613      10.8801      0.00000
    614      10.8987      0.00000
    615      10.9633      0.00000
    616      10.9719      0.00000
    617      11.0200      0.00000
    618      11.0431      0.00000
    619      11.0597      0.00000
    620      11.0774      0.00000
    621      11.0887      0.00000
    622      11.0998      0.00000
    623      11.1213      0.00000
    624      11.1448      0.00000
    625      11.1895      0.00000
    626      11.2148      0.00000
    627      11.2183      0.00000
    628      11.2472      0.00000
    629      11.2719      0.00000
    630      11.2899      0.00000
    631      11.3209      0.00000
    632      11.3647      0.00000
    633      11.4004      0.00000
    634      11.4235      0.00000
    635      11.4582      0.00000
    636      11.4617      0.00000
    637      11.4787      0.00000
    638      11.4968      0.00000
    639      11.5097      0.00000
    640      11.5202      0.00000
    641      11.5500      0.00000
    642      11.5660      0.00000
    643      11.5963      0.00000
    644      11.5999      0.00000
    645      11.6233      0.00000
    646      11.6826      0.00000
    647      11.7288      0.00000
    648      11.7717      0.00000
    649      11.7828      0.00000
    650      11.7990      0.00000
    651      11.8176      0.00000
    652      11.8329      0.00000
    653      11.8541      0.00000
    654      11.8782      0.00000
    655      11.9069      0.00000
    656      11.9449      0.00000
    657      11.9565      0.00000
    658      11.9925      0.00000
    659      12.0343      0.00000
    660      12.0944      0.00000
    661      12.1920      0.00000
    662      12.1973      0.00000
    663      12.2229      0.00000
    664      12.2336      0.00000
    665      12.2438      0.00000
    666      12.2573      0.00000
    667      12.2754      0.00000
    668      12.2958      0.00000
    669      12.4261      0.00000
    670      12.5023      0.00000
    671      12.5320      0.00000
    672      12.5630      0.00000
    673      12.5688      0.00000
    674      12.5888      0.00000
    675      12.6112      0.00000
    676      12.6265      0.00000
    677      12.6287      0.00000
    678      12.8111      0.00000
    679      12.8454      0.00000
    680      12.9184      0.00000
    681      12.9379      0.00000
    682      12.9913      0.00000
    683      13.0053      0.00000
    684      13.0226      0.00000
    685      13.0430      0.00000
    686      13.0603      0.00000
    687      13.1055      0.00000
    688      13.1161      0.00000
    689      13.1401      0.00000
    690      13.1655      0.00000
    691      13.2102      0.00000
    692      13.2579      0.00000
    693      13.3251      0.00000
    694      13.5202      0.00000
    695      13.5603      0.00000
    696      13.5807      0.00000

 k-point     2 :       0.3333    0.0000    0.0000
  band No.  band energies     occupation 
      1     -55.6695      1.00000
      2     -55.5983      1.00000
      3     -55.5752      1.00000
      4     -55.5452      1.00000
      5     -55.5397      1.00000
      6     -55.5334      1.00000
      7     -55.5301      1.00000
      8     -55.5293      1.00000
      9     -55.5278      1.00000
     10     -55.5243      1.00000
     11     -55.5102      1.00000
     12     -55.5068      1.00000
     13     -55.4970      1.00000
     14     -55.4933      1.00000
     15     -55.4892      1.00000
     16     -55.4873      1.00000
     17     -55.4836      1.00000
     18     -55.4832      1.00000
     19     -55.4808      1.00000
     20     -55.4780      1.00000
     21     -55.4591      1.00000
     22     -55.4589      1.00000
     23     -55.4337      1.00000
     24     -55.4266      1.00000
     25     -55.4195      1.00000
     26     -55.4077      1.00000
     27     -55.4000      1.00000
     28     -55.3972      1.00000
     29     -55.3956      1.00000
     30     -55.3945      1.00000
     31     -55.3925      1.00000
     32     -55.3918      1.00000
     33     -55.3911      1.00000
     34     -55.3891      1.00000
     35     -55.3782      1.00000
     36     -55.3780      1.00000
     37     -55.3771      1.00000
     38     -55.3728      1.00000
     39     -55.3696      1.00000
     40     -55.3691      1.00000
     41     -55.3597      1.00000
     42     -55.3509      1.00000
     43     -55.3504      1.00000
     44     -55.3439      1.00000
     45     -55.3368      1.00000
     46     -55.3265      1.00000
     47     -55.3259      1.00000
     48     -55.3203      1.00000
     49     -55.3191      1.00000
     50     -55.3111      1.00000
     51     -55.3111      1.00000
     52     -55.3085      1.00000
     53     -55.2985      1.00000
     54     -55.2921      1.00000
     55     -55.2864      1.00000
     56     -55.2835      1.00000
     57     -55.2834      1.00000
     58     -55.2796      1.00000
     59     -55.2714      1.00000
     60     -55.2684      1.00000
     61     -55.2677      1.00000
     62     -55.2663      1.00000
     63     -55.2523      1.00000
     64     -55.2331      1.00000
     65     -55.2244      1.00000
     66     -55.2241      1.00000
     67     -55.2213      1.00000
     68     -55.2072      1.00000
     69     -55.1890      1.00000
     70     -51.9406      1.00000
     71     -50.3294      1.00000
     72     -50.0446      1.00000
     73     -18.8491      1.00000
     74     -18.6004      1.00000
     75     -18.5338      1.00000
     76     -18.4987      1.00000
     77     -18.4902      1.00000
     78     -18.4640      1.00000
     79     -18.4396      1.00000
     80     -18.4048      1.00000
     81     -18.3872      1.00000
     82     -18.3772      1.00000
     83     -18.3570      1.00000
     84     -18.3367      1.00000
     85     -18.3155      1.00000
     86     -18.2935      1.00000
     87     -18.2754      1.00000
     88     -18.2601      1.00000
     89     -18.2426      1.00000
     90     -18.2261      1.00000
     91     -18.2109      1.00000
     92     -18.2018      1.00000
     93     -18.1883      1.00000
     94     -18.1714      1.00000
     95     -18.1556      1.00000
     96     -18.1348      1.00000
     97     -18.0887      1.00000
     98     -18.0570      1.00000
     99     -18.0489      1.00000
    100     -16.2774      1.00000
    101     -16.2320      1.00000
    102     -16.2039      1.00000
    103     -16.1833      1.00000
    104     -16.1534      1.00000
    105     -16.1501      1.00000
    106     -16.1350      1.00000
    107     -16.1156      1.00000
    108     -16.1043      1.00000
    109     -16.0917      1.00000
    110     -16.0856      1.00000
    111     -16.0763      1.00000
    112     -16.0652      1.00000
    113     -16.0579      1.00000
    114     -16.0420      1.00000
    115     -16.0305      1.00000
    116     -16.0245      1.00000
    117     -16.0182      1.00000
    118     -16.0070      1.00000
    119     -15.9968      1.00000
    120     -15.9862      1.00000
    121     -15.9477      1.00000
    122     -15.9404      1.00000
    123     -15.9226      1.00000
    124     -15.9109      1.00000
    125     -15.8848      1.00000
    126     -15.8619      1.00000
    127     -15.8486      1.00000
    128     -15.8372      1.00000
    129     -15.8319      1.00000
    130     -15.8183      1.00000
    131     -15.8156      1.00000
    132     -15.8059      1.00000
    133     -15.7969      1.00000
    134     -15.7915      1.00000
    135     -15.7852      1.00000
    136     -15.7767      1.00000
    137     -15.7687      1.00000
    138     -15.7632      1.00000
    139     -15.7596      1.00000
    140     -15.7534      1.00000
    141     -15.7461      1.00000
    142     -15.7443      1.00000
    143     -15.7410      1.00000
    144     -15.7323      1.00000
    145     -15.7213      1.00000
    146     -15.7188      1.00000
    147     -15.7041      1.00000
    148     -15.6964      1.00000
    149     -15.6920      1.00000
    150     -15.6801      1.00000
    151     -15.6764      1.00000
    152     -15.6650      1.00000
    153     -15.6604      1.00000
    154     -15.6517      1.00000
    155     -15.6467      1.00000
    156     -15.6419      1.00000
    157     -15.6339      1.00000
    158     -15.6280      1.00000
    159     -15.6204      1.00000
    160     -15.6138      1.00000
    161     -15.6095      1.00000
    162     -15.6019      1.00000
    163     -15.5987      1.00000
    164     -15.5946      1.00000
    165     -15.5839      1.00000
    166     -15.5715      1.00000
    167     -15.5513      1.00000
    168     -15.5355      1.00000
    169     -15.5120      1.00000
    170     -15.3858      1.00000
    171     -15.2717      1.00000
    172      -6.9449      1.00000
    173      -6.9285      1.00000
    174      -6.9010      1.00000
    175      -6.8832      1.00000
    176      -6.8541      1.00000
    177      -6.8462      1.00000
    178      -6.8340      1.00000
    179      -6.8099      1.00000
    180      -6.7620      1.00000
    181      -6.7193      1.00000
    182      -6.6702      1.00000
    183      -6.6151      1.00000
    184      -6.6013      1.00000
    185      -6.5694      1.00000
    186      -6.5330      1.00000
    187      -6.5225      1.00000
    188      -6.5048      1.00000
    189      -6.4903      1.00000
    190      -6.4545      1.00000
    191      -6.4228      1.00000
    192      -6.4030      1.00000
    193      -6.3432      1.00000
    194      -6.2408      1.00000
    195      -6.0862      1.00000
    196      -6.0070      1.00000
    197      -5.9896      1.00000
    198      -5.9857      1.00000
    199      -5.9679      1.00000
    200      -5.9559      1.00000
    201      -5.9407      1.00000
    202      -5.9204      1.00000
    203      -5.9069      1.00000
    204      -5.8638      1.00000
    205      -5.8382      1.00000
    206      -5.8329      1.00000
    207      -5.8183      1.00000
    208      -5.8069      1.00000
    209      -5.8015      1.00000
    210      -5.7947      1.00000
    211      -5.7856      1.00000
    212      -5.7787      1.00000
    213      -5.7634      1.00000
    214      -5.6849      1.00000
    215      -5.6315      1.00000
    216      -5.6103      1.00000
    217      -5.5425      1.00000
    218      -5.5323      1.00000
    219      -5.5192      1.00000
    220      -5.4800      1.00000
    221      -5.4323      1.00000
    222      -5.3751      1.00000
    223      -5.3669      1.00000
    224      -5.3344      1.00000
    225      -5.2866      1.00000
    226      -5.2718      1.00000
    227      -5.2565      1.00000
    228      -5.2415      1.00000
    229      -5.2348      1.00000
    230      -5.2274      1.00000
    231      -5.2216      1.00000
    232      -5.2138      1.00000
    233      -5.2052      1.00000
    234      -5.1949      1.00000
    235      -5.1853      1.00000
    236      -5.1782      1.00000
    237      -5.1617      1.00000
    238      -5.1554      1.00000
    239      -5.1480      1.00000
    240      -5.1429      1.00000
    241      -5.1282      1.00000
    242      -5.1241      1.00000
    243      -5.1195      1.00000
    244      -5.1109      1.00000
    245      -5.1043      1.00000
    246      -5.1003      1.00000
    247      -5.0905      1.00000
    248      -5.0861      1.00000
    249      -5.0824      1.00000
    250      -5.0781      1.00000
    251      -5.0680      1.00000
    252      -5.0656      1.00000
    253      -5.0592      1.00000
    254      -5.0529      1.00000
    255      -5.0488      1.00000
    256      -5.0451      1.00000
    257      -5.0420      1.00000
    258      -5.0294      1.00000
    259      -5.0256      1.00000
    260      -5.0226      1.00000
    261      -5.0197      1.00000
    262      -5.0119      1.00000
    263      -5.0100      1.00000
    264      -5.0059      1.00000
    265      -5.0038      1.00000
    266      -4.9990      1.00000
    267      -4.9975      1.00000
    268      -4.9894      1.00000
    269      -4.9789      1.00000
    270      -4.9722      1.00000
    271      -4.9652      1.00000
    272      -4.9634      1.00000
    273      -4.9569      1.00000
    274      -4.9500      1.00000
    275      -4.9444      1.00000
    276      -4.9297      1.00000
    277      -4.9229      1.00000
    278      -4.9195      1.00000
    279      -4.9144      1.00000
    280      -4.9072      1.00000
    281      -4.9014      1.00000
    282      -4.8948      1.00000
    283      -4.8920      1.00000
    284      -4.8852      1.00000
    285      -4.8739      1.00000
    286      -4.8659      1.00000
    287      -4.8567      1.00000
    288      -4.8536      1.00000
    289      -4.8333      1.00000
    290      -4.8145      1.00000
    291      -4.8041      1.00000
    292      -4.7904      1.00000
    293      -4.7610      1.00000
    294      -4.7219      1.00000
    295      -4.7058      1.00000
    296      -4.6601      1.00000
    297      -4.6387      1.00000
    298      -4.6239      1.00000
    299      -4.6052      1.00000
    300      -4.5873      1.00000
    301      -4.5675      1.00000
    302      -4.4480      1.00000
    303      -4.4082      1.00000
    304      -4.3747      1.00000
    305      -4.3615      1.00000
    306      -4.3432      1.00000
    307      -4.2823      1.00000
    308      -4.2553      1.00000
    309      -4.1817      1.00000
    310      -4.1707      1.00000
    311      -4.1239      1.00000
    312      -4.0973      1.00000
    313      -3.9090      1.00000
    314      -3.8575      1.00000
    315      -3.7783      1.00000
    316      -3.6755      1.00000
    317      -3.5261      1.00000
    318      -3.4610      1.00000
    319      -3.4144      1.00000
    320      -3.3774      1.00000
    321      -3.3550      1.00000
    322      -3.3245      1.00000
    323      -3.2645      1.00000
    324      -3.2395      1.00000
    325      -3.1920      1.00000
    326      -3.1371      1.00000
    327      -3.1226      1.00000
    328      -3.1160      1.00000
    329      -3.0923      1.00000
    330      -3.0821      1.00000
    331      -3.0693      1.00000
    332      -3.0589      1.00000
    333      -3.0402      1.00000
    334      -3.0303      1.00000
    335      -3.0154      1.00000
    336      -2.9999      1.00000
    337      -2.9787      1.00000
    338      -2.9435      1.00000
    339      -2.9106      1.00000
    340      -2.8913      1.00000
    341      -2.8675      1.00000
    342      -2.8565      1.00000
    343      -2.8367      1.00000
    344      -2.8280      1.00000
    345      -2.8079      1.00000
    346      -2.7991      1.00000
    347      -2.7881      1.00000
    348      -2.7719      1.00000
    349      -2.7558      1.00000
    350      -2.7450      1.00000
    351      -2.7309      1.00000
    352      -2.7241      1.00000
    353      -2.7027      1.00000
    354      -2.6696      1.00000
    355      -2.6625      1.00000
    356      -2.6595      1.00000
    357      -2.6368      1.00000
    358      -2.6305      1.00000
    359      -2.5881      1.00000
    360      -2.5765      1.00000
    361      -2.5253      1.00000
    362      -2.5011      1.00000
    363      -2.4746      1.00000
    364      -2.4558      1.00000
    365      -2.4316      1.00000
    366      -2.4193      1.00000
    367      -2.3772      1.00000
    368      -2.3583      1.00000
    369      -2.3515      1.00000
    370      -2.3142      1.00000
    371      -2.3085      1.00000
    372      -2.2844      1.00000
    373      -2.2755      1.00000
    374      -2.2554      1.00000
    375      -2.2478      1.00000
    376      -2.2381      1.00000
    377      -2.2204      1.00000
    378      -2.2011      1.00000
    379      -2.1774      1.00000
    380      -2.1346      1.00000
    381      -2.0536      1.00000
    382      -1.9728      1.00000
    383      -1.7059      1.00000
    384      -1.6208      1.00000
    385      -1.5009      1.00000
    386      -1.4198      1.00000
    387      -1.3795      1.00000
    388      -1.3597      1.00000
    389      -1.3325      1.00000
    390      -1.2721      1.00000
    391      -1.2621      1.00000
    392      -1.2415      1.00000
    393      -1.2262      1.00000
    394      -1.2075      1.00000
    395      -1.1571      1.00000
    396      -1.1077      1.00000
    397      -1.0872      1.00000
    398      -1.0506      1.00000
    399      -1.0233      1.00000
    400      -0.9893      1.00000
    401      -0.9444      1.00000
    402      -0.9397      1.00000
    403      -0.9260      1.00000
    404      -0.9075      1.00000
    405      -0.8993      1.00000
    406      -0.8860      1.00000
    407      -0.8671      1.00000
    408      -0.8541      1.00000
    409      -0.8317      1.00000
    410      -0.7835      1.00000
    411      -0.7691      1.00000
    412      -0.7625      1.00000
    413      -0.7409      1.00000
    414      -0.7156      1.00000
    415      -0.6974      1.00000
    416      -0.6801      1.00000
    417      -0.6461      1.00000
    418      -0.6337      1.00000
    419      -0.6136      1.00000
    420      -0.5649      1.00000
    421      -0.5442      1.00000
    422      -0.5229      1.00000
    423      -0.4830      1.00000
    424      -0.4601      1.00000
    425      -0.4416      1.00000
    426      -0.4278      1.00000
    427      -0.4110      1.00000
    428      -0.3968      1.00000
    429      -0.3746      1.00000
    430      -0.3689      1.00000
    431      -0.3520      1.00000
    432      -0.3450      1.00000
    433      -0.3353      1.00000
    434      -0.3086      1.00000
    435      -0.2916      1.00000
    436      -0.2617      1.00000
    437      -0.2527      1.00000
    438      -0.2054      1.00000
    439      -0.1921      1.00000
    440      -0.1782      1.00000
    441      -0.1637      1.00000
    442      -0.1588      1.00000
    443      -0.1351      1.00000
    444      -0.1273      1.00000
    445      -0.1132      1.00000
    446      -0.0963      1.00000
    447      -0.0742      1.00000
    448      -0.0621      1.00000
    449      -0.0561      1.00000
    450      -0.0440      1.00000
    451      -0.0290      1.00000
    452      -0.0134      1.00000
    453       0.0138      1.00000
    454       0.0403      1.00000
    455       0.0509      1.00000
    456       0.0682      1.00000
    457       0.0915      1.00000
    458       0.0997      1.00000
    459       0.1100      1.00000
    460       0.1293      1.00000
    461       0.1388      1.00000
    462       0.1537      1.00000
    463       0.1620      1.00000
    464       0.1761      1.00000
    465       0.1991      1.00000
    466       0.2047      1.00000
    467       0.2086      1.00000
    468       0.2217      1.00000
    469       0.2422      1.00000
    470       0.2585      1.00000
    471       0.2673      1.00000
    472       0.2841      1.00000
    473       0.3003      1.00000
    474       0.3061      1.00000
    475       0.3240      1.00000
    476       0.3358      1.00000
    477       0.3607      1.00000
    478       0.3859      1.00000
    479       0.4074      1.00000
    480       0.4322      1.00000
    481       0.4668      1.00000
    482       0.4984      1.00000
    483       0.5136      1.00000
    484       0.5296      1.00000
    485       0.5483      1.00000
    486       0.5618      1.00000
    487       0.5775      1.00000
    488       0.6077      1.00000
    489       0.6716      1.00000
    490       0.7183      1.00000
    491       0.7761      1.00000
    492       0.7818      1.00000
    493       0.7952      1.00000
    494       0.8017      1.00000
    495       0.8099      1.00000
    496       0.8190      1.00000
    497       0.8376      1.00000
    498       0.8474      1.00000
    499       0.8716      1.00000
    500       0.8875      1.00000
    501       0.9133      1.00000
    502       0.9270      1.00000
    503       0.9456      1.00000
    504       0.9725      1.00000
    505       0.9816      1.00000
    506       0.9986      1.00000
    507       1.0133      1.00000
    508       1.0286      1.00000
    509       1.0406      1.00000
    510       1.0578      1.00000
    511       1.0634      1.00000
    512       1.0872      1.00000
    513       1.1056      1.00000
    514       1.1414      1.00000
    515       1.1556      1.00000
    516       1.1699      1.00000
    517       1.1964      1.00000
    518       1.2143      1.00000
    519       1.2226      1.00000
    520       1.2309      1.00000
    521       1.2404      1.00000
    522       1.2893      1.00000
    523       1.3082      1.00000
    524       1.3233      1.00000
    525       1.3294      1.00000
    526       1.3486      1.00000
    527       1.3588      1.00000
    528       1.3649      1.00000
    529       1.3848      1.00000
    530       1.3948      1.00000
    531       1.4116      1.00000
    532       1.4312      1.00000
    533       1.4595      1.00000
    534       1.4713      1.00000
    535       1.5050      1.00000
    536       1.5175      1.00000
    537       1.5401      1.00000
    538       1.5619      1.00000
    539       1.5649      1.00000
    540       1.5812      1.00000
    541       1.5903      1.00000
    542       1.6099      1.00000
    543       1.6113      1.00000
    544       1.6201      1.00000
    545       1.6335      1.00000
    546       1.6601      1.00000
    547       1.6763      1.00000
    548       1.6909      1.00000
    549       1.7061      1.00000
    550       1.7213      1.00000
    551       1.7417      1.00000
    552       1.7496      1.00000
    553       1.7555      1.00000
    554       1.7605      1.00000
    555       1.7776      1.00000
    556       1.7828      1.00000
    557       1.7975      1.00000
    558       1.8016      1.00000
    559       1.8154      1.00000
    560       1.8194      1.00000
    561       1.8263      1.00000
    562       1.8423      1.00000
    563       1.8502      1.00000
    564       1.8625      1.00000
    565       1.8799      1.00000
    566       1.8945      1.00000
    567       1.9126      1.00000
    568       1.9168      1.00000
    569       1.9313      1.00000
    570       1.9518      1.00000
    571       1.9745      1.00000
    572       1.9866      1.00000
    573       1.9929      1.00000
    574       2.0078      1.00000
    575       2.0326      1.00000
    576       2.0586      1.00000
    577       2.0773      1.00000
    578       2.1322      1.00000
    579       2.6198      1.00000
    580       7.7795      0.00000
    581       8.5304      0.00000
    582       8.5739      0.00000
    583       8.6679      0.00000
    584       9.2448      0.00000
    585       9.2782      0.00000
    586       9.4382      0.00000
    587       9.4649      0.00000
    588       9.9468      0.00000
    589      10.0036      0.00000
    590      10.0338      0.00000
    591      10.0399      0.00000
    592      10.0596      0.00000
    593      10.0783      0.00000
    594      10.1510      0.00000
    595      10.2590      0.00000
    596      10.2768      0.00000
    597      10.3951      0.00000
    598      10.4110      0.00000
    599      10.4819      0.00000
    600      10.5883      0.00000
    601      10.6334      0.00000
    602      10.6541      0.00000
    603      10.6622      0.00000
    604      10.6770      0.00000
    605      10.6894      0.00000
    606      10.7249      0.00000
    607      10.8318      0.00000
    608      10.8496      0.00000
    609      10.8818      0.00000
    610      10.9021      0.00000
    611      10.9287      0.00000
    612      10.9466      0.00000
    613      10.9659      0.00000
    614      10.9991      0.00000
    615      11.0194      0.00000
    616      11.0367      0.00000
    617      11.0564      0.00000
    618      11.0728      0.00000
    619      11.0868      0.00000
    620      11.1108      0.00000
    621      11.1127      0.00000
    622      11.1708      0.00000
    623      11.1786      0.00000
    624      11.2102      0.00000
    625      11.2410      0.00000
    626      11.2492      0.00000
    627      11.2697      0.00000
    628      11.2813      0.00000
    629      11.3053      0.00000
    630      11.3146      0.00000
    631      11.3503      0.00000
    632      11.3577      0.00000
    633      11.3744      0.00000
    634      11.3911      0.00000
    635      11.3984      0.00000
    636      11.4052      0.00000
    637      11.4172      0.00000
    638      11.4385      0.00000
    639      11.4520      0.00000
    640      11.4670      0.00000
    641      11.4840      0.00000
    642      11.5352      0.00000
    643      11.5436      0.00000
    644      11.6790      0.00000
    645      11.6987      0.00000
    646      11.7226      0.00000
    647      11.7532      0.00000
    648      11.7821      0.00000
    649      11.8072      0.00000
    650      11.8277      0.00000
    651      11.8357      0.00000
    652      11.8528      0.00000
    653      11.8735      0.00000
    654      11.8859      0.00000
    655      11.9074      0.00000
    656      11.9288      0.00000
    657      11.9385      0.00000
    658      11.9588      0.00000
    659      11.9983      0.00000
    660      12.0208      0.00000
    661      12.0616      0.00000
    662      12.0781      0.00000
    663      12.1441      0.00000
    664      12.1622      0.00000
    665      12.1736      0.00000
    666      12.1836      0.00000
    667      12.2033      0.00000
    668      12.2218      0.00000
    669      12.2412      0.00000
    670      12.5148      0.00000
    671      12.5750      0.00000
    672      12.5968      0.00000
    673      12.6837      0.00000
    674      12.7392      0.00000
    675      12.7855      0.00000
    676      12.8035      0.00000
    677      12.8322      0.00000
    678      12.8765      0.00000
    679      12.8896      0.00000
    680      12.9001      0.00000
    681      12.9272      0.00000
    682      12.9988      0.00000
    683      13.0066      0.00000
    684      13.0238      0.00000
    685      13.0409      0.00000
    686      13.0623      0.00000
    687      13.0784      0.00000
    688      13.1076      0.00000
    689      13.1141      0.00000
    690      13.1329      0.00000
    691      13.1781      0.00000
    692      13.2319      0.00000
    693      13.2626      0.00000
    694      13.3734      0.00000
    695      13.4254      0.00000
    696      13.4782      0.00000

 k-point     3 :       0.0000    0.0000    0.3333
  band No.  band energies     occupation 
      1     -55.6695      1.00000
      2     -55.5983      1.00000
      3     -55.5752      1.00000
      4     -55.5452      1.00000
      5     -55.5397      1.00000
      6     -55.5334      1.00000
      7     -55.5301      1.00000
      8     -55.5293      1.00000
      9     -55.5278      1.00000
     10     -55.5243      1.00000
     11     -55.5102      1.00000
     12     -55.5068      1.00000
     13     -55.4970      1.00000
     14     -55.4933      1.00000
     15     -55.4892      1.00000
     16     -55.4873      1.00000
     17     -55.4836      1.00000
     18     -55.4832      1.00000
     19     -55.4808      1.00000
     20     -55.4780      1.00000
     21     -55.4591      1.00000
     22     -55.4589      1.00000
     23     -55.4337      1.00000
     24     -55.4266      1.00000
     25     -55.4195      1.00000
     26     -55.4077      1.00000
     27     -55.4000      1.00000
     28     -55.3972      1.00000
     29     -55.3956      1.00000
     30     -55.3945      1.00000
     31     -55.3925      1.00000
     32     -55.3918      1.00000
     33     -55.3911      1.00000
     34     -55.3891      1.00000
     35     -55.3782      1.00000
     36     -55.3780      1.00000
     37     -55.3771      1.00000
     38     -55.3728      1.00000
     39     -55.3696      1.00000
     40     -55.3691      1.00000
     41     -55.3597      1.00000
     42     -55.3509      1.00000
     43     -55.3504      1.00000
     44     -55.3439      1.00000
     45     -55.3368      1.00000
     46     -55.3265      1.00000
     47     -55.3259      1.00000
     48     -55.3203      1.00000
     49     -55.3191      1.00000
     50     -55.3111      1.00000
     51     -55.3111      1.00000
     52     -55.3085      1.00000
     53     -55.2985      1.00000
     54     -55.2921      1.00000
     55     -55.2864      1.00000
     56     -55.2835      1.00000
     57     -55.2834      1.00000
     58     -55.2796      1.00000
     59     -55.2714      1.00000
     60     -55.2684      1.00000
     61     -55.2677      1.00000
     62     -55.2663      1.00000
     63     -55.2523      1.00000
     64     -55.2331      1.00000
     65     -55.2244      1.00000
     66     -55.2241      1.00000
     67     -55.2213      1.00000
     68     -55.2072      1.00000
     69     -55.1890      1.00000
     70     -51.9406      1.00000
     71     -50.3294      1.00000
     72     -50.0446      1.00000
     73     -18.8529      1.00000
     74     -18.5975      1.00000
     75     -18.5386      1.00000
     76     -18.5002      1.00000
     77     -18.4893      1.00000
     78     -18.4705      1.00000
     79     -18.4509      1.00000
     80     -18.4172      1.00000
     81     -18.3812      1.00000
     82     -18.3455      1.00000
     83     -18.3227      1.00000
     84     -18.3082      1.00000
     85     -18.2966      1.00000
     86     -18.2876      1.00000
     87     -18.2811      1.00000
     88     -18.2639      1.00000
     89     -18.2524      1.00000
     90     -18.2358      1.00000
     91     -18.2292      1.00000
     92     -18.2232      1.00000
     93     -18.2021      1.00000
     94     -18.1764      1.00000
     95     -18.1556      1.00000
     96     -18.1387      1.00000
     97     -18.0903      1.00000
     98     -18.0692      1.00000
     99     -18.0395      1.00000
    100     -16.2629      1.00000
    101     -16.2295      1.00000
    102     -16.2002      1.00000
    103     -16.1891      1.00000
    104     -16.1783      1.00000
    105     -16.1481      1.00000
    106     -16.1435      1.00000
    107     -16.1250      1.00000
    108     -16.1189      1.00000
    109     -16.0898      1.00000
    110     -16.0730      1.00000
    111     -16.0571      1.00000
    112     -16.0399      1.00000
    113     -16.0234      1.00000
    114     -16.0133      1.00000
    115     -16.0007      1.00000
    116     -15.9968      1.00000
    117     -15.9859      1.00000
    118     -15.9829      1.00000
    119     -15.9696      1.00000
    120     -15.9659      1.00000
    121     -15.9611      1.00000
    122     -15.9526      1.00000
    123     -15.9453      1.00000
    124     -15.9254      1.00000
    125     -15.9149      1.00000
    126     -15.9077      1.00000
    127     -15.8894      1.00000
    128     -15.8810      1.00000
    129     -15.8581      1.00000
    130     -15.8502      1.00000
    131     -15.8348      1.00000
    132     -15.8273      1.00000
    133     -15.8187      1.00000
    134     -15.8100      1.00000
    135     -15.7943      1.00000
    136     -15.7823      1.00000
    137     -15.7707      1.00000
    138     -15.7649      1.00000
    139     -15.7532      1.00000
    140     -15.7482      1.00000
    141     -15.7403      1.00000
    142     -15.7352      1.00000
    143     -15.7274      1.00000
    144     -15.7217      1.00000
    145     -15.7144      1.00000
    146     -15.7082      1.00000
    147     -15.6981      1.00000
    148     -15.6951      1.00000
    149     -15.6869      1.00000
    150     -15.6812      1.00000
    151     -15.6724      1.00000
    152     -15.6640      1.00000
    153     -15.6517      1.00000
    154     -15.6471      1.00000
    155     -15.6452      1.00000
    156     -15.6412      1.00000
    157     -15.6264      1.00000
    158     -15.6219      1.00000
    159     -15.6178      1.00000
    160     -15.6136      1.00000
    161     -15.6090      1.00000
    162     -15.6040      1.00000
    163     -15.5978      1.00000
    164     -15.5881      1.00000
    165     -15.5774      1.00000
    166     -15.5624      1.00000
    167     -15.5504      1.00000
    168     -15.5390      1.00000
    169     -15.5026      1.00000
    170     -15.3924      1.00000
    171     -15.2653      1.00000
    172      -7.0549      1.00000
    173      -7.0065      1.00000
    174      -6.9867      1.00000
    175      -6.9704      1.00000
    176      -6.9565      1.00000
    177      -6.9446      1.00000
    178      -6.9410      1.00000
    179      -6.9249      1.00000
    180      -6.9199      1.00000
    181      -6.8907      1.00000
    182      -6.8516      1.00000
    183      -6.6325      1.00000
    184      -6.3881      1.00000
    185      -6.3424      1.00000
    186      -6.3199      1.00000
    187      -6.2901      1.00000
    188      -6.2765      1.00000
    189      -6.2094      1.00000
    190      -6.1406      1.00000
    191      -6.1209      1.00000
    192      -6.1078      1.00000
    193      -6.1026      1.00000
    194      -6.0907      1.00000
    195      -6.0764      1.00000
    196      -6.0727      1.00000
    197      -6.0569      1.00000
    198      -6.0385      1.00000
    199      -6.0345      1.00000
    200      -6.0198      1.00000
    201      -5.9977      1.00000
    202      -5.9593      1.00000
    203      -5.9489      1.00000
    204      -5.9114      1.00000
    205      -5.8886      1.00000
    206      -5.8834      1.00000
    207      -5.8697      1.00000
    208      -5.8483      1.00000
    209      -5.8315      1.00000
    210      -5.8129      1.00000
    211      -5.8086      1.00000
    212      -5.7192      1.00000
    213      -5.6811      1.00000
    214      -5.6370      1.00000
    215      -5.5900      1.00000
    216      -5.5844      1.00000
    217      -5.5638      1.00000
    218      -5.5427      1.00000
    219      -5.5012      1.00000
    220      -5.4967      1.00000
    221      -5.4742      1.00000
    222      -5.4500      1.00000
    223      -5.4456      1.00000
    224      -5.3540      1.00000
    225      -5.3228      1.00000
    226      -5.3077      1.00000
    227      -5.3005      1.00000
    228      -5.2819      1.00000
    229      -5.2682      1.00000
    230      -5.2601      1.00000
    231      -5.2505      1.00000
    232      -5.2346      1.00000
    233      -5.2205      1.00000
    234      -5.2033      1.00000
    235      -5.1927      1.00000
    236      -5.1845      1.00000
    237      -5.1695      1.00000
    238      -5.1633      1.00000
    239      -5.1597      1.00000
    240      -5.1437      1.00000
    241      -5.1394      1.00000
    242      -5.1327      1.00000
    243      -5.1289      1.00000
    244      -5.1226      1.00000
    245      -5.1179      1.00000
    246      -5.1126      1.00000
    247      -5.1077      1.00000
    248      -5.0974      1.00000
    249      -5.0915      1.00000
    250      -5.0864      1.00000
    251      -5.0843      1.00000
    252      -5.0769      1.00000
    253      -5.0680      1.00000
    254      -5.0635      1.00000
    255      -5.0588      1.00000
    256      -5.0502      1.00000
    257      -5.0456      1.00000
    258      -5.0406      1.00000
    259      -5.0345      1.00000
    260      -5.0252      1.00000
    261      -5.0204      1.00000
    262      -5.0146      1.00000
    263      -5.0062      1.00000
    264      -5.0051      1.00000
    265      -4.9982      1.00000
    266      -4.9923      1.00000
    267      -4.9888      1.00000
    268      -4.9833      1.00000
    269      -4.9807      1.00000
    270      -4.9748      1.00000
    271      -4.9709      1.00000
    272      -4.9659      1.00000
    273      -4.9637      1.00000
    274      -4.9612      1.00000
    275      -4.9581      1.00000
    276      -4.9515      1.00000
    277      -4.9455      1.00000
    278      -4.9388      1.00000
    279      -4.9344      1.00000
    280      -4.9318      1.00000
    281      -4.9298      1.00000
    282      -4.9200      1.00000
    283      -4.9147      1.00000
    284      -4.9127      1.00000
    285      -4.8988      1.00000
    286      -4.8970      1.00000
    287      -4.8931      1.00000
    288      -4.8879      1.00000
    289      -4.8835      1.00000
    290      -4.8687      1.00000
    291      -4.8641      1.00000
    292      -4.8573      1.00000
    293      -4.8441      1.00000
    294      -4.8348      1.00000
    295      -4.7718      1.00000
    296      -4.7397      1.00000
    297      -4.7304      1.00000
    298      -4.7128      1.00000
    299      -4.6530      1.00000
    300      -4.5229      1.00000
    301      -4.4492      1.00000
    302      -4.4459      1.00000
    303      -4.3496      1.00000
    304      -4.3080      1.00000
    305      -4.2352      1.00000
    306      -4.2016      1.00000
    307      -4.1782      1.00000
    308      -4.1441      1.00000
    309      -4.1097      1.00000
    310      -3.9800      1.00000
    311      -3.9625      1.00000
    312      -3.8904      1.00000
    313      -3.8525      1.00000
    314      -3.8269      1.00000
    315      -3.7654      1.00000
    316      -3.6140      1.00000
    317      -3.5912      1.00000
    318      -3.5428      1.00000
    319      -3.4529      1.00000
    320      -3.3498      1.00000
    321      -3.2838      1.00000
    322      -3.2643      1.00000
    323      -3.2521      1.00000
    324      -3.2346      1.00000
    325      -3.2126      1.00000
    326      -3.1997      1.00000
    327      -3.1853      1.00000
    328      -3.1697      1.00000
    329      -3.1538      1.00000
    330      -3.1268      1.00000
    331      -3.1038      1.00000
    332      -3.0742      1.00000
    333      -3.0587      1.00000
    334      -3.0170      1.00000
    335      -3.0088      1.00000
    336      -2.9818      1.00000
    337      -2.9618      1.00000
    338      -2.9359      1.00000
    339      -2.9171      1.00000
    340      -2.9045      1.00000
    341      -2.8892      1.00000
    342      -2.8802      1.00000
    343      -2.8462      1.00000
    344      -2.8330      1.00000
    345      -2.8210      1.00000
    346      -2.8136      1.00000
    347      -2.8009      1.00000
    348      -2.7857      1.00000
    349      -2.7733      1.00000
    350      -2.7673      1.00000
    351      -2.7509      1.00000
    352      -2.7405      1.00000
    353      -2.7256      1.00000
    354      -2.7179      1.00000
    355      -2.7067      1.00000
    356      -2.7012      1.00000
    357      -2.6849      1.00000
    358      -2.6787      1.00000
    359      -2.6559      1.00000
    360      -2.6512      1.00000
    361      -2.6136      1.00000
    362      -2.5987      1.00000
    363      -2.5870      1.00000
    364      -2.5521      1.00000
    365      -2.5307      1.00000
    366      -2.5135      1.00000
    367      -2.5082      1.00000
    368      -2.4617      1.00000
    369      -2.4056      1.00000
    370      -2.3677      1.00000
    371      -2.2503      1.00000
    372      -2.2398      1.00000
    373      -2.2291      1.00000
    374      -2.2072      1.00000
    375      -2.1675      1.00000
    376      -2.1382      1.00000
    377      -2.0917      1.00000
    378      -2.0782      1.00000
    379      -2.0551      1.00000
    380      -1.9778      1.00000
    381      -1.9123      1.00000
    382      -1.7967      1.00000
    383      -1.5785      1.00000
    384      -1.5528      1.00000
    385      -1.5331      1.00000
    386      -1.4291      1.00000
    387      -1.3726      1.00000
    388      -1.3447      1.00000
    389      -1.3166      1.00000
    390      -1.2703      1.00000
    391      -1.2142      1.00000
    392      -1.1828      1.00000
    393      -1.1552      1.00000
    394      -1.1342      1.00000
    395      -1.1193      1.00000
    396      -1.0910      1.00000
    397      -1.0766      1.00000
    398      -1.0518      1.00000
    399      -1.0282      1.00000
    400      -1.0214      1.00000
    401      -0.9863      1.00000
    402      -0.9778      1.00000
    403      -0.9711      1.00000
    404      -0.9591      1.00000
    405      -0.9388      1.00000
    406      -0.9159      1.00000
    407      -0.8984      1.00000
    408      -0.8722      1.00000
    409      -0.8559      1.00000
    410      -0.8420      1.00000
    411      -0.8340      1.00000
    412      -0.7975      1.00000
    413      -0.7833      1.00000
    414      -0.7273      1.00000
    415      -0.6793      1.00000
    416      -0.6632      1.00000
    417      -0.6487      1.00000
    418      -0.6235      1.00000
    419      -0.5995      1.00000
    420      -0.5531      1.00000
    421      -0.5424      1.00000
    422      -0.5166      1.00000
    423      -0.4962      1.00000
    424      -0.4699      1.00000
    425      -0.4601      1.00000
    426      -0.4378      1.00000
    427      -0.4336      1.00000
    428      -0.4125      1.00000
    429      -0.3770      1.00000
    430      -0.3738      1.00000
    431      -0.3565      1.00000
    432      -0.3331      1.00000
    433      -0.3089      1.00000
    434      -0.2804      1.00000
    435      -0.2595      1.00000
    436      -0.2477      1.00000
    437      -0.2411      1.00000
    438      -0.2228      1.00000
    439      -0.2061      1.00000
    440      -0.1861      1.00000
    441      -0.1663      1.00000
    442      -0.1558      1.00000
    443      -0.1442      1.00000
    444      -0.1325      1.00000
    445      -0.1136      1.00000
    446      -0.0994      1.00000
    447      -0.0852      1.00000
    448      -0.0600      1.00000
    449      -0.0371      1.00000
    450      -0.0272      1.00000
    451      -0.0117      1.00000
    452      -0.0046      1.00000
    453       0.0143      1.00000
    454       0.0482      1.00000
    455       0.0586      1.00000
    456       0.0743      1.00000
    457       0.0796      1.00000
    458       0.0941      1.00000
    459       0.0979      1.00000
    460       0.1065      1.00000
    461       0.1293      1.00000
    462       0.1479      1.00000
    463       0.1549      1.00000
    464       0.1707      1.00000
    465       0.2055      1.00000
    466       0.2199      1.00000
    467       0.2408      1.00000
    468       0.2674      1.00000
    469       0.2748      1.00000
    470       0.2970      1.00000
    471       0.2997      1.00000
    472       0.3147      1.00000
    473       0.3282      1.00000
    474       0.3351      1.00000
    475       0.3420      1.00000
    476       0.3493      1.00000
    477       0.3677      1.00000
    478       0.3833      1.00000
    479       0.4104      1.00000
    480       0.4443      1.00000
    481       0.4720      1.00000
    482       0.4837      1.00000
    483       0.5214      1.00000
    484       0.5308      1.00000
    485       0.5564      1.00000
    486       0.5877      1.00000
    487       0.6009      1.00000
    488       0.6286      1.00000
    489       0.6405      1.00000
    490       0.6861      1.00000
    491       0.7097      1.00000
    492       0.7430      1.00000
    493       0.7579      1.00000
    494       0.8012      1.00000
    495       0.8154      1.00000
    496       0.8272      1.00000
    497       0.8510      1.00000
    498       0.8668      1.00000
    499       0.8775      1.00000
    500       0.8937      1.00000
    501       0.9161      1.00000
    502       0.9216      1.00000
    503       0.9364      1.00000
    504       0.9475      1.00000
    505       0.9858      1.00000
    506       0.9969      1.00000
    507       1.0073      1.00000
    508       1.0207      1.00000
    509       1.0375      1.00000
    510       1.0756      1.00000
    511       1.1011      1.00000
    512       1.1254      1.00000
    513       1.1348      1.00000
    514       1.1487      1.00000
    515       1.1700      1.00000
    516       1.1774      1.00000
    517       1.1961      1.00000
    518       1.2061      1.00000
    519       1.2299      1.00000
    520       1.2461      1.00000
    521       1.2786      1.00000
    522       1.2873      1.00000
    523       1.3068      1.00000
    524       1.3310      1.00000
    525       1.3421      1.00000
    526       1.3623      1.00000
    527       1.3795      1.00000
    528       1.3922      1.00000
    529       1.4004      1.00000
    530       1.4159      1.00000
    531       1.4296      1.00000
    532       1.4447      1.00000
    533       1.4739      1.00000
    534       1.4771      1.00000
    535       1.4953      1.00000
    536       1.5069      1.00000
    537       1.5142      1.00000
    538       1.5402      1.00000
    539       1.5525      1.00000
    540       1.5601      1.00000
    541       1.5627      1.00000
    542       1.5727      1.00000
    543       1.5863      1.00000
    544       1.6028      1.00000
    545       1.6163      1.00000
    546       1.6288      1.00000
    547       1.6400      1.00000
    548       1.6598      1.00000
    549       1.6678      1.00000
    550       1.6870      1.00000
    551       1.6964      1.00000
    552       1.7116      1.00000
    553       1.7150      1.00000
    554       1.7275      1.00000
    555       1.7330      1.00000
    556       1.7504      1.00000
    557       1.7657      1.00000
    558       1.7834      1.00000
    559       1.7917      1.00000
    560       1.8050      1.00000
    561       1.8133      1.00000
    562       1.8319      1.00000
    563       1.8443      1.00000
    564       1.8658      1.00000
    565       1.8849      1.00000
    566       1.8977      1.00000
    567       1.9158      1.00000
    568       1.9429      1.00000
    569       1.9718      1.00000
    570       1.9832      1.00000
    571       1.9868      1.00000
    572       2.0118      1.00000
    573       2.0236      1.00000
    574       2.0376      1.00000
    575       2.0505      1.00000
    576       2.0772      1.00000
    577       2.1016      1.00000
    578       2.1479      1.00000
    579       2.6235      1.00000
    580       7.7553      0.00000
    581       8.5194      0.00000
    582       8.5676      0.00000
    583       8.5813      0.00000
    584       9.2232      0.00000
    585       9.2529      0.00000
    586       9.6565      0.00000
    587       9.8623      0.00000
    588       9.9549      0.00000
    589       9.9891      0.00000
    590      10.0081      0.00000
    591      10.0289      0.00000
    592      10.0621      0.00000
    593      10.1350      0.00000
    594      10.1633      0.00000
    595      10.2241      0.00000
    596      10.3200      0.00000
    597      10.3545      0.00000
    598      10.4006      0.00000
    599      10.4363      0.00000
    600      10.4889      0.00000
    601      10.5280      0.00000
    602      10.5723      0.00000
    603      10.6028      0.00000
    604      10.6766      0.00000
    605      10.7003      0.00000
    606      10.7304      0.00000
    607      10.7410      0.00000
    608      10.7577      0.00000
    609      10.7739      0.00000
    610      10.8027      0.00000
    611      10.8125      0.00000
    612      10.8204      0.00000
    613      10.8273      0.00000
    614      10.8662      0.00000
    615      10.8853      0.00000
    616      10.8974      0.00000
    617      10.9188      0.00000
    618      10.9492      0.00000
    619      10.9737      0.00000
    620      10.9945      0.00000
    621      11.0185      0.00000
    622      11.0453      0.00000
    623      11.0755      0.00000
    624      11.1001      0.00000
    625      11.1225      0.00000
    626      11.1716      0.00000
    627      11.2367      0.00000
    628      11.2670      0.00000
    629      11.3146      0.00000
    630      11.3453      0.00000
    631      11.3627      0.00000
    632      11.3932      0.00000
    633      11.4632      0.00000
    634      11.4791      0.00000
    635      11.5182      0.00000
    636      11.5354      0.00000
    637      11.6024      0.00000
    638      11.6323      0.00000
    639      11.6473      0.00000
    640      11.6706      0.00000
    641      11.6870      0.00000
    642      11.7065      0.00000
    643      11.7353      0.00000
    644      11.7562      0.00000
    645      11.7690      0.00000
    646      11.7725      0.00000
    647      11.7861      0.00000
    648      11.8158      0.00000
    649      11.8294      0.00000
    650      11.8552      0.00000
    651      11.8640      0.00000
    652      11.8854      0.00000
    653      11.9183      0.00000
    654      11.9433      0.00000
    655      11.9656      0.00000
    656      12.0147      0.00000
    657      12.0372      0.00000
    658      12.0498      0.00000
    659      12.0570      0.00000
    660      12.0762      0.00000
    661      12.0995      0.00000
    662      12.1248      0.00000
    663      12.1366      0.00000
    664      12.2371      0.00000
    665      12.2507      0.00000
    666      12.2763      0.00000
    667      12.3281      0.00000
    668      12.3940      0.00000
    669      12.4561      0.00000
    670      12.4621      0.00000
    671      12.4848      0.00000
    672      12.5006      0.00000
    673      12.5313      0.00000
    674      12.5563      0.00000
    675      12.5790      0.00000
    676      12.5962      0.00000
    677      12.6518      0.00000
    678      12.6699      0.00000
    679      12.9294      0.00000
    680      12.9502      0.00000
    681      12.9725      0.00000
    682      12.9947      0.00000
    683      13.0158      0.00000
    684      13.0338      0.00000
    685      13.0445      0.00000
    686      13.0749      0.00000
    687      13.0959      0.00000
    688      13.1070      0.00000
    689      13.1297      0.00000
    690      13.1772      0.00000
    691      13.2179      0.00000
    692      13.2327      0.00000
    693      13.2976      0.00000
    694      13.3151      0.00000
    695      13.3557      0.00000
    696      13.4313      0.00000

 k-point     4 :       0.3333    0.0000    0.3333
  band No.  band energies     occupation 
      1     -55.6695      1.00000
      2     -55.5983      1.00000
      3     -55.5752      1.00000
      4     -55.5452      1.00000
      5     -55.5397      1.00000
      6     -55.5334      1.00000
      7     -55.5301      1.00000
      8     -55.5293      1.00000
      9     -55.5278      1.00000
     10     -55.5243      1.00000
     11     -55.5102      1.00000
     12     -55.5068      1.00000
     13     -55.4970      1.00000
     14     -55.4933      1.00000
     15     -55.4892      1.00000
     16     -55.4873      1.00000
     17     -55.4836      1.00000
     18     -55.4832      1.00000
     19     -55.4808      1.00000
     20     -55.4780      1.00000
     21     -55.4591      1.00000
     22     -55.4589      1.00000
     23     -55.4337      1.00000
     24     -55.4266      1.00000
     25     -55.4195      1.00000
     26     -55.4077      1.00000
     27     -55.4000      1.00000
     28     -55.3972      1.00000
     29     -55.3956      1.00000
     30     -55.3945      1.00000
     31     -55.3925      1.00000
     32     -55.3918      1.00000
     33     -55.3911      1.00000
     34     -55.3891      1.00000
     35     -55.3782      1.00000
     36     -55.3780      1.00000
     37     -55.3771      1.00000
     38     -55.3728      1.00000
     39     -55.3696      1.00000
     40     -55.3691      1.00000
     41     -55.3597      1.00000
     42     -55.3509      1.00000
     43     -55.3504      1.00000
     44     -55.3439      1.00000
     45     -55.3368      1.00000
     46     -55.3265      1.00000
     47     -55.3259      1.00000
     48     -55.3203      1.00000
     49     -55.3191      1.00000
     50     -55.3111      1.00000
     51     -55.3111      1.00000
     52     -55.3085      1.00000
     53     -55.2985      1.00000
     54     -55.2921      1.00000
     55     -55.2864      1.00000
     56     -55.2835      1.00000
     57     -55.2834      1.00000
     58     -55.2796      1.00000
     59     -55.2714      1.00000
     60     -55.2684      1.00000
     61     -55.2677      1.00000
     62     -55.2663      1.00000
     63     -55.2523      1.00000
     64     -55.2331      1.00000
     65     -55.2244      1.00000
     66     -55.2241      1.00000
     67     -55.2213      1.00000
     68     -55.2072      1.00000
     69     -55.1890      1.00000
     70     -51.9406      1.00000
     71     -50.3294      1.00000
     72     -50.0446      1.00000
     73     -18.8513      1.00000
     74     -18.5844      1.00000
     75     -18.5260      1.00000
     76     -18.4953      1.00000
     77     -18.4826      1.00000
     78     -18.4564      1.00000
     79     -18.4300      1.00000
     80     -18.4198      1.00000
     81     -18.3952      1.00000
     82     -18.3759      1.00000
     83     -18.3629      1.00000
     84     -18.3456      1.00000
     85     -18.3200      1.00000
     86     -18.3000      1.00000
     87     -18.2788      1.00000
     88     -18.2600      1.00000
     89     -18.2461      1.00000
     90     -18.2241      1.00000
     91     -18.2201      1.00000
     92     -18.1978      1.00000
     93     -18.1862      1.00000
     94     -18.1729      1.00000
     95     -18.1594      1.00000
     96     -18.1373      1.00000
     97     -18.0884      1.00000
     98     -18.0579      1.00000
     99     -18.0474      1.00000
    100     -16.2543      1.00000
    101     -16.2236      1.00000
    102     -16.1775      1.00000
    103     -16.1678      1.00000
    104     -16.1584      1.00000
    105     -16.1386      1.00000
    106     -16.1229      1.00000
    107     -16.1181      1.00000
    108     -16.1055      1.00000
    109     -16.0913      1.00000
    110     -16.0818      1.00000
    111     -16.0699      1.00000
    112     -16.0604      1.00000
    113     -16.0546      1.00000
    114     -16.0492      1.00000
    115     -16.0368      1.00000
    116     -16.0344      1.00000
    117     -16.0111      1.00000
    118     -16.0087      1.00000
    119     -15.9999      1.00000
    120     -15.9907      1.00000
    121     -15.9677      1.00000
    122     -15.9428      1.00000
    123     -15.9266      1.00000
    124     -15.9144      1.00000
    125     -15.8848      1.00000
    126     -15.8614      1.00000
    127     -15.8546      1.00000
    128     -15.8461      1.00000
    129     -15.8361      1.00000
    130     -15.8254      1.00000
    131     -15.8161      1.00000
    132     -15.8089      1.00000
    133     -15.8008      1.00000
    134     -15.7967      1.00000
    135     -15.7842      1.00000
    136     -15.7735      1.00000
    137     -15.7702      1.00000
    138     -15.7640      1.00000
    139     -15.7611      1.00000
    140     -15.7564      1.00000
    141     -15.7471      1.00000
    142     -15.7450      1.00000
    143     -15.7372      1.00000
    144     -15.7260      1.00000
    145     -15.7219      1.00000
    146     -15.7103      1.00000
    147     -15.7043      1.00000
    148     -15.6982      1.00000
    149     -15.6954      1.00000
    150     -15.6853      1.00000
    151     -15.6712      1.00000
    152     -15.6657      1.00000
    153     -15.6593      1.00000
    154     -15.6513      1.00000
    155     -15.6455      1.00000
    156     -15.6434      1.00000
    157     -15.6323      1.00000
    158     -15.6260      1.00000
    159     -15.6215      1.00000
    160     -15.6133      1.00000
    161     -15.6097      1.00000
    162     -15.6031      1.00000
    163     -15.6016      1.00000
    164     -15.5910      1.00000
    165     -15.5846      1.00000
    166     -15.5747      1.00000
    167     -15.5554      1.00000
    168     -15.5362      1.00000
    169     -15.5153      1.00000
    170     -15.3881      1.00000
    171     -15.2720      1.00000
    172      -6.9512      1.00000
    173      -6.9100      1.00000
    174      -6.8843      1.00000
    175      -6.8712      1.00000
    176      -6.8541      1.00000
    177      -6.8384      1.00000
    178      -6.8230      1.00000
    179      -6.8066      1.00000
    180      -6.7744      1.00000
    181      -6.7508      1.00000
    182      -6.7075      1.00000
    183      -6.6415      1.00000
    184      -6.5832      1.00000
    185      -6.5730      1.00000
    186      -6.5484      1.00000
    187      -6.5389      1.00000
    188      -6.5261      1.00000
    189      -6.4794      1.00000
    190      -6.4329      1.00000
    191      -6.4175      1.00000
    192      -6.3678      1.00000
    193      -6.3553      1.00000
    194      -6.2559      1.00000
    195      -6.1080      1.00000
    196      -6.0169      1.00000
    197      -6.0038      1.00000
    198      -5.9903      1.00000
    199      -5.9815      1.00000
    200      -5.9636      1.00000
    201      -5.9451      1.00000
    202      -5.9326      1.00000
    203      -5.9239      1.00000
    204      -5.8839      1.00000
    205      -5.8622      1.00000
    206      -5.8417      1.00000
    207      -5.8306      1.00000
    208      -5.8173      1.00000
    209      -5.8053      1.00000
    210      -5.7941      1.00000
    211      -5.7826      1.00000
    212      -5.7809      1.00000
    213      -5.7300      1.00000
    214      -5.6850      1.00000
    215      -5.6173      1.00000
    216      -5.5883      1.00000
    217      -5.5694      1.00000
    218      -5.5505      1.00000
    219      -5.5056      1.00000
    220      -5.4877      1.00000
    221      -5.4595      1.00000
    222      -5.3614      1.00000
    223      -5.3195      1.00000
    224      -5.2847      1.00000
    225      -5.2678      1.00000
    226      -5.2492      1.00000
    227      -5.2480      1.00000
    228      -5.2351      1.00000
    229      -5.2217      1.00000
    230      -5.2142      1.00000
    231      -5.2121      1.00000
    232      -5.1984      1.00000
    233      -5.1868      1.00000
    234      -5.1810      1.00000
    235      -5.1698      1.00000
    236      -5.1620      1.00000
    237      -5.1536      1.00000
    238      -5.1475      1.00000
    239      -5.1398      1.00000
    240      -5.1375      1.00000
    241      -5.1312      1.00000
    242      -5.1227      1.00000
    243      -5.1182      1.00000
    244      -5.1108      1.00000
    245      -5.1067      1.00000
    246      -5.0989      1.00000
    247      -5.0930      1.00000
    248      -5.0896      1.00000
    249      -5.0807      1.00000
    250      -5.0754      1.00000
    251      -5.0713      1.00000
    252      -5.0662      1.00000
    253      -5.0587      1.00000
    254      -5.0546      1.00000
    255      -5.0461      1.00000
    256      -5.0448      1.00000
    257      -5.0381      1.00000
    258      -5.0346      1.00000
    259      -5.0250      1.00000
    260      -5.0200      1.00000
    261      -5.0145      1.00000
    262      -5.0098      1.00000
    263      -5.0067      1.00000
    264      -4.9998      1.00000
    265      -4.9950      1.00000
    266      -4.9871      1.00000
    267      -4.9825      1.00000
    268      -4.9801      1.00000
    269      -4.9733      1.00000
    270      -4.9677      1.00000
    271      -4.9657      1.00000
    272      -4.9636      1.00000
    273      -4.9551      1.00000
    274      -4.9502      1.00000
    275      -4.9438      1.00000
    276      -4.9372      1.00000
    277      -4.9295      1.00000
    278      -4.9245      1.00000
    279      -4.9194      1.00000
    280      -4.9112      1.00000
    281      -4.9083      1.00000
    282      -4.8996      1.00000
    283      -4.8957      1.00000
    284      -4.8924      1.00000
    285      -4.8877      1.00000
    286      -4.8671      1.00000
    287      -4.8621      1.00000
    288      -4.8495      1.00000
    289      -4.8333      1.00000
    290      -4.8273      1.00000
    291      -4.8069      1.00000
    292      -4.7618      1.00000
    293      -4.7436      1.00000
    294      -4.7303      1.00000
    295      -4.6825      1.00000
    296      -4.6411      1.00000
    297      -4.6179      1.00000
    298      -4.5840      1.00000
    299      -4.5554      1.00000
    300      -4.5409      1.00000
    301      -4.5175      1.00000
    302      -4.4758      1.00000
    303      -4.3815      1.00000
    304      -4.3469      1.00000
    305      -4.3160      1.00000
    306      -4.2985      1.00000
    307      -4.2473      1.00000
    308      -4.2055      1.00000
    309      -4.1907      1.00000
    310      -4.0968      1.00000
    311      -4.0689      1.00000
    312      -4.0097      1.00000
    313      -3.8408      1.00000
    314      -3.8234      1.00000
    315      -3.7852      1.00000
    316      -3.7390      1.00000
    317      -3.6733      1.00000
    318      -3.6010      1.00000
    319      -3.5699      1.00000
    320      -3.5168      1.00000
    321      -3.4760      1.00000
    322      -3.4290      1.00000
    323      -3.2375      1.00000
    324      -3.2162      1.00000
    325      -3.1783      1.00000
    326      -3.1501      1.00000
    327      -3.1444      1.00000
    328      -3.1221      1.00000
    329      -3.1017      1.00000
    330      -3.0940      1.00000
    331      -3.0853      1.00000
    332      -3.0627      1.00000
    333      -3.0426      1.00000
    334      -3.0281      1.00000
    335      -2.9948      1.00000
    336      -2.9720      1.00000
    337      -2.9533      1.00000
    338      -2.9367      1.00000
    339      -2.9071      1.00000
    340      -2.8969      1.00000
    341      -2.8874      1.00000
    342      -2.8674      1.00000
    343      -2.8623      1.00000
    344      -2.8340      1.00000
    345      -2.8269      1.00000
    346      -2.8115      1.00000
    347      -2.8029      1.00000
    348      -2.7902      1.00000
    349      -2.7828      1.00000
    350      -2.7733      1.00000
    351      -2.7629      1.00000
    352      -2.7499      1.00000
    353      -2.7397      1.00000
    354      -2.7308      1.00000
    355      -2.7205      1.00000
    356      -2.7007      1.00000
    357      -2.6970      1.00000
    358      -2.6843      1.00000
    359      -2.6713      1.00000
    360      -2.6661      1.00000
    361      -2.6369      1.00000
    362      -2.6272      1.00000
    363      -2.6196      1.00000
    364      -2.6041      1.00000
    365      -2.5544      1.00000
    366      -2.5310      1.00000
    367      -2.4777      1.00000
    368      -2.4330      1.00000
    369      -2.3935      1.00000
    370      -2.3470      1.00000
    371      -2.2972      1.00000
    372      -2.2229      1.00000
    373      -2.2063      1.00000
    374      -2.1744      1.00000
    375      -2.1529      1.00000
    376      -2.1304      1.00000
    377      -2.1173      1.00000
    378      -2.1097      1.00000
    379      -2.0764      1.00000
    380      -2.0397      1.00000
    381      -1.9773      1.00000
    382      -1.9088      1.00000
    383      -1.6077      1.00000
    384      -1.5647      1.00000
    385      -1.4997      1.00000
    386      -1.4095      1.00000
    387      -1.3186      1.00000
    388      -1.3025      1.00000
    389      -1.2786      1.00000
    390      -1.2545      1.00000
    391      -1.2211      1.00000
    392      -1.2066      1.00000
    393      -1.1525      1.00000
    394      -1.1295      1.00000
    395      -1.0971      1.00000
    396      -1.0729      1.00000
    397      -1.0344      1.00000
    398      -1.0191      1.00000
    399      -0.9971      1.00000
    400      -0.9839      1.00000
    401      -0.9552      1.00000
    402      -0.9310      1.00000
    403      -0.9201      1.00000
    404      -0.8970      1.00000
    405      -0.8838      1.00000
    406      -0.8739      1.00000
    407      -0.8501      1.00000
    408      -0.8408      1.00000
    409      -0.8219      1.00000
    410      -0.8098      1.00000
    411      -0.7824      1.00000
    412      -0.7557      1.00000
    413      -0.7003      1.00000
    414      -0.6835      1.00000
    415      -0.6446      1.00000
    416      -0.6347      1.00000
    417      -0.6284      1.00000
    418      -0.5907      1.00000
    419      -0.5671      1.00000
    420      -0.5486      1.00000
    421      -0.5427      1.00000
    422      -0.5287      1.00000
    423      -0.5172      1.00000
    424      -0.5034      1.00000
    425      -0.4852      1.00000
    426      -0.4836      1.00000
    427      -0.4648      1.00000
    428      -0.4066      1.00000
    429      -0.3845      1.00000
    430      -0.3745      1.00000
    431      -0.3388      1.00000
    432      -0.3076      1.00000
    433      -0.2970      1.00000
    434      -0.2583      1.00000
    435      -0.2456      1.00000
    436      -0.2271      1.00000
    437      -0.1881      1.00000
    438      -0.1817      1.00000
    439      -0.1622      1.00000
    440      -0.1537      1.00000
    441      -0.1368      1.00000
    442      -0.1287      1.00000
    443      -0.1221      1.00000
    444      -0.1090      1.00000
    445      -0.1004      1.00000
    446      -0.0951      1.00000
    447      -0.0724      1.00000
    448      -0.0534      1.00000
    449      -0.0486      1.00000
    450      -0.0272      1.00000
    451      -0.0028      1.00000
    452       0.0030      1.00000
    453       0.0185      1.00000
    454       0.0341      1.00000
    455       0.0475      1.00000
    456       0.0594      1.00000
    457       0.0890      1.00000
    458       0.1110      1.00000
    459       0.1243      1.00000
    460       0.1425      1.00000
    461       0.1593      1.00000
    462       0.1721      1.00000
    463       0.1789      1.00000
    464       0.1941      1.00000
    465       0.2029      1.00000
    466       0.2182      1.00000
    467       0.2253      1.00000
    468       0.2413      1.00000
    469       0.2481      1.00000
    470       0.2600      1.00000
    471       0.2763      1.00000
    472       0.2833      1.00000
    473       0.2965      1.00000
    474       0.3119      1.00000
    475       0.3258      1.00000
    476       0.3358      1.00000
    477       0.3600      1.00000
    478       0.3708      1.00000
    479       0.3892      1.00000
    480       0.4106      1.00000
    481       0.4304      1.00000
    482       0.4622      1.00000
    483       0.4847      1.00000
    484       0.5533      1.00000
    485       0.5606      1.00000
    486       0.5807      1.00000
    487       0.5970      1.00000
    488       0.6189      1.00000
    489       0.6454      1.00000
    490       0.6666      1.00000
    491       0.6894      1.00000
    492       0.7029      1.00000
    493       0.7206      1.00000
    494       0.7358      1.00000
    495       0.7792      1.00000
    496       0.7955      1.00000
    497       0.8177      1.00000
    498       0.8274      1.00000
    499       0.8495      1.00000
    500       0.8558      1.00000
    501       0.8721      1.00000
    502       0.8842      1.00000
    503       0.9038      1.00000
    504       0.9314      1.00000
    505       0.9552      1.00000
    506       0.9873      1.00000
    507       0.9971      1.00000
    508       1.0224      1.00000
    509       1.0756      1.00000
    510       1.0877      1.00000
    511       1.0989      1.00000
    512       1.1115      1.00000
    513       1.1281      1.00000
    514       1.1411      1.00000
    515       1.1607      1.00000
    516       1.1706      1.00000
    517       1.1865      1.00000
    518       1.2035      1.00000
    519       1.2127      1.00000
    520       1.2302      1.00000
    521       1.2532      1.00000
    522       1.2711      1.00000
    523       1.2828      1.00000
    524       1.3062      1.00000
    525       1.3115      1.00000
    526       1.3328      1.00000
    527       1.3415      1.00000
    528       1.3752      1.00000
    529       1.3829      1.00000
    530       1.4005      1.00000
    531       1.4111      1.00000
    532       1.4280      1.00000
    533       1.4409      1.00000
    534       1.4596      1.00000
    535       1.4778      1.00000
    536       1.4874      1.00000
    537       1.5074      1.00000
    538       1.5205      1.00000
    539       1.5242      1.00000
    540       1.5387      1.00000
    541       1.5668      1.00000
    542       1.6013      1.00000
    543       1.6081      1.00000
    544       1.6385      1.00000
    545       1.6433      1.00000
    546       1.6579      1.00000
    547       1.6965      1.00000
    548       1.7075      1.00000
    549       1.7191      1.00000
    550       1.7258      1.00000
    551       1.7323      1.00000
    552       1.7379      1.00000
    553       1.7521      1.00000
    554       1.7635      1.00000
    555       1.7651      1.00000
    556       1.7825      1.00000
    557       1.7961      1.00000
    558       1.8070      1.00000
    559       1.8188      1.00000
    560       1.8304      1.00000
    561       1.8422      1.00000
    562       1.8634      1.00000
    563       1.8663      1.00000
    564       1.8711      1.00000
    565       1.8907      1.00000
    566       1.8953      1.00000
    567       1.9135      1.00000
    568       1.9155      1.00000
    569       1.9338      1.00000
    570       1.9477      1.00000
    571       1.9580      1.00000
    572       1.9792      1.00000
    573       2.0072      1.00000
    574       2.0155      1.00000
    575       2.0364      1.00000
    576       2.0564      1.00000
    577       2.0827      1.00000
    578       2.1335      1.00000
    579       2.6236      1.00000
    580       8.0819      0.00000
    581       8.7549      0.00000
    582       8.8127      0.00000
    583       8.8270      0.00000
    584       8.8956      0.00000
    585       9.3623      0.00000
    586       9.4197      0.00000
    587       9.4329      0.00000
    588       9.4638      0.00000
    589       9.4883      0.00000
    590       9.9142      0.00000
    591       9.9419      0.00000
    592      10.0511      0.00000
    593      10.1138      0.00000
    594      10.1281      0.00000
    595      10.1845      0.00000
    596      10.3202      0.00000
    597      10.3495      0.00000
    598      10.3697      0.00000
    599      10.3970      0.00000
    600      10.4206      0.00000
    601      10.4545      0.00000
    602      10.5536      0.00000
    603      10.5788      0.00000
    604      10.7108      0.00000
    605      10.7594      0.00000
    606      10.7915      0.00000
    607      10.8186      0.00000
    608      10.8767      0.00000
    609      10.9018      0.00000
    610      10.9171      0.00000
    611      10.9343      0.00000
    612      10.9443      0.00000
    613      10.9675      0.00000
    614      10.9996      0.00000
    615      11.0359      0.00000
    616      11.0516      0.00000
    617      11.0697      0.00000
    618      11.0762      0.00000
    619      11.0932      0.00000
    620      11.1178      0.00000
    621      11.1281      0.00000
    622      11.1464      0.00000
    623      11.1970      0.00000
    624      11.2620      0.00000
    625      11.2767      0.00000
    626      11.2958      0.00000
    627      11.3071      0.00000
    628      11.3386      0.00000
    629      11.3510      0.00000
    630      11.3659      0.00000
    631      11.3877      0.00000
    632      11.4047      0.00000
    633      11.4228      0.00000
    634      11.4494      0.00000
    635      11.4739      0.00000
    636      11.5072      0.00000
    637      11.5303      0.00000
    638      11.5524      0.00000
    639      11.6068      0.00000
    640      11.6200      0.00000
    641      11.6348      0.00000
    642      11.6730      0.00000
    643      11.7087      0.00000
    644      11.7323      0.00000
    645      11.7390      0.00000
    646      11.7622      0.00000
    647      11.7801      0.00000
    648      11.7916      0.00000
    649      11.8100      0.00000
    650      11.8474      0.00000
    651      11.8753      0.00000
    652      11.8865      0.00000
    653      11.8972      0.00000
    654      11.9252      0.00000
    655      11.9376      0.00000
    656      11.9459      0.00000
    657      11.9563      0.00000
    658      11.9820      0.00000
    659      12.0037      0.00000
    660      12.0242      0.00000
    661      12.0755      0.00000
    662      12.1148      0.00000
    663      12.1923      0.00000
    664      12.2097      0.00000
    665      12.2145      0.00000
    666      12.2561      0.00000
    667      12.3392      0.00000
    668      12.4099      0.00000
    669      12.4263      0.00000
    670      12.4706      0.00000
    671      12.4801      0.00000
    672      12.5172      0.00000
    673      12.5578      0.00000
    674      12.5901      0.00000
    675      12.6173      0.00000
    676      12.6372      0.00000
    677      12.6475      0.00000
    678      12.7389      0.00000
    679      12.7659      0.00000
    680      12.7882      0.00000
    681      12.8109      0.00000
    682      12.8291      0.00000
    683      12.8456      0.00000
    684      12.8867      0.00000
    685      12.9120      0.00000
    686      13.1141      0.00000
    687      13.1489      0.00000
    688      13.1989      0.00000
    689      13.2252      0.00000
    690      13.2322      0.00000
    691      13.2614      0.00000
    692      13.3035      0.00000
    693      13.3171      0.00000
    694      13.3596      0.00000
    695      13.4012      0.00000
    696      13.4373      0.00000

 k-point     5 :      -0.3333    0.0000    0.3333
  band No.  band energies     occupation 
      1     -55.6695      1.00000
      2     -55.5983      1.00000
      3     -55.5752      1.00000
      4     -55.5452      1.00000
      5     -55.5397      1.00000
      6     -55.5334      1.00000
      7     -55.5301      1.00000
      8     -55.5293      1.00000
      9     -55.5278      1.00000
     10     -55.5243      1.00000
     11     -55.5102      1.00000
     12     -55.5068      1.00000
     13     -55.4970      1.00000
     14     -55.4933      1.00000
     15     -55.4892      1.00000
     16     -55.4873      1.00000
     17     -55.4836      1.00000
     18     -55.4832      1.00000
     19     -55.4808      1.00000
     20     -55.4780      1.00000
     21     -55.4591      1.00000
     22     -55.4589      1.00000
     23     -55.4337      1.00000
     24     -55.4266      1.00000
     25     -55.4195      1.00000
     26     -55.4077      1.00000
     27     -55.4000      1.00000
     28     -55.3972      1.00000
     29     -55.3956      1.00000
     30     -55.3945      1.00000
     31     -55.3925      1.00000
     32     -55.3918      1.00000
     33     -55.3911      1.00000
     34     -55.3891      1.00000
     35     -55.3782      1.00000
     36     -55.3780      1.00000
     37     -55.3771      1.00000
     38     -55.3728      1.00000
     39     -55.3696      1.00000
     40     -55.3691      1.00000
     41     -55.3597      1.00000
     42     -55.3509      1.00000
     43     -55.3504      1.00000
     44     -55.3439      1.00000
     45     -55.3368      1.00000
     46     -55.3265      1.00000
     47     -55.3259      1.00000
     48     -55.3203      1.00000
     49     -55.3191      1.00000
     50     -55.3111      1.00000
     51     -55.3111      1.00000
     52     -55.3085      1.00000
     53     -55.2985      1.00000
     54     -55.2921      1.00000
     55     -55.2864      1.00000
     56     -55.2835      1.00000
     57     -55.2834      1.00000
     58     -55.2796      1.00000
     59     -55.2714      1.00000
     60     -55.2684      1.00000
     61     -55.2677      1.00000
     62     -55.2663      1.00000
     63     -55.2523      1.00000
     64     -55.2331      1.00000
     65     -55.2244      1.00000
     66     -55.2241      1.00000
     67     -55.2213      1.00000
     68     -55.2072      1.00000
     69     -55.1890      1.00000
     70     -51.9406      1.00000
     71     -50.3294      1.00000
     72     -50.0446      1.00000
     73     -18.8523      1.00000
     74     -18.5720      1.00000
     75     -18.5328      1.00000
     76     -18.4991      1.00000
     77     -18.4831      1.00000
     78     -18.4567      1.00000
     79     -18.4349      1.00000
     80     -18.4199      1.00000
     81     -18.3942      1.00000
     82     -18.3751      1.00000
     83     -18.3626      1.00000
     84     -18.3436      1.00000
     85     -18.3200      1.00000
     86     -18.3016      1.00000
     87     -18.2806      1.00000
     88     -18.2548      1.00000
     89     -18.2465      1.00000
     90     -18.2254      1.00000
     91     -18.2194      1.00000
     92     -18.1992      1.00000
     93     -18.1874      1.00000
     94     -18.1719      1.00000
     95     -18.1557      1.00000
     96     -18.1384      1.00000
     97     -18.0864      1.00000
     98     -18.0648      1.00000
     99     -18.0434      1.00000
    100     -16.2496      1.00000
    101     -16.2221      1.00000
    102     -16.1871      1.00000
    103     -16.1782      1.00000
    104     -16.1547      1.00000
    105     -16.1338      1.00000
    106     -16.1248      1.00000
    107     -16.1125      1.00000
    108     -16.1032      1.00000
    109     -16.0945      1.00000
    110     -16.0770      1.00000
    111     -16.0727      1.00000
    112     -16.0631      1.00000
    113     -16.0506      1.00000
    114     -16.0436      1.00000
    115     -16.0352      1.00000
    116     -16.0272      1.00000
    117     -16.0179      1.00000
    118     -16.0110      1.00000
    119     -16.0076      1.00000
    120     -15.9923      1.00000
    121     -15.9697      1.00000
    122     -15.9390      1.00000
    123     -15.9244      1.00000
    124     -15.9139      1.00000
    125     -15.8848      1.00000
    126     -15.8667      1.00000
    127     -15.8551      1.00000
    128     -15.8407      1.00000
    129     -15.8346      1.00000
    130     -15.8242      1.00000
    131     -15.8152      1.00000
    132     -15.8104      1.00000
    133     -15.8039      1.00000
    134     -15.8000      1.00000
    135     -15.7818      1.00000
    136     -15.7772      1.00000
    137     -15.7696      1.00000
    138     -15.7642      1.00000
    139     -15.7585      1.00000
    140     -15.7552      1.00000
    141     -15.7468      1.00000
    142     -15.7415      1.00000
    143     -15.7336      1.00000
    144     -15.7297      1.00000
    145     -15.7225      1.00000
    146     -15.7211      1.00000
    147     -15.7071      1.00000
    148     -15.6958      1.00000
    149     -15.6861      1.00000
    150     -15.6842      1.00000
    151     -15.6723      1.00000
    152     -15.6649      1.00000
    153     -15.6575      1.00000
    154     -15.6512      1.00000
    155     -15.6477      1.00000
    156     -15.6406      1.00000
    157     -15.6327      1.00000
    158     -15.6314      1.00000
    159     -15.6230      1.00000
    160     -15.6148      1.00000
    161     -15.6075      1.00000
    162     -15.6008      1.00000
    163     -15.5982      1.00000
    164     -15.5947      1.00000
    165     -15.5825      1.00000
    166     -15.5763      1.00000
    167     -15.5558      1.00000
    168     -15.5350      1.00000
    169     -15.5161      1.00000
    170     -15.3881      1.00000
    171     -15.2720      1.00000
    172      -6.9465      1.00000
    173      -6.9159      1.00000
    174      -6.8784      1.00000
    175      -6.8704      1.00000
    176      -6.8514      1.00000
    177      -6.8385      1.00000
    178      -6.8276      1.00000
    179      -6.7993      1.00000
    180      -6.7853      1.00000
    181      -6.7512      1.00000
    182      -6.7138      1.00000
    183      -6.6414      1.00000
    184      -6.5829      1.00000
    185      -6.5722      1.00000
    186      -6.5568      1.00000
    187      -6.5329      1.00000
    188      -6.5217      1.00000
    189      -6.4663      1.00000
    190      -6.4379      1.00000
    191      -6.4249      1.00000
    192      -6.3709      1.00000
    193      -6.3341      1.00000
    194      -6.2785      1.00000
    195      -6.0983      1.00000
    196      -6.0196      1.00000
    197      -6.0021      1.00000
    198      -5.9937      1.00000
    199      -5.9778      1.00000
    200      -5.9612      1.00000
    201      -5.9527      1.00000
    202      -5.9286      1.00000
    203      -5.9164      1.00000
    204      -5.8885      1.00000
    205      -5.8604      1.00000
    206      -5.8384      1.00000
    207      -5.8329      1.00000
    208      -5.8166      1.00000
    209      -5.8070      1.00000
    210      -5.7950      1.00000
    211      -5.7868      1.00000
    212      -5.7806      1.00000
    213      -5.7370      1.00000
    214      -5.6815      1.00000
    215      -5.6137      1.00000
    216      -5.5929      1.00000
    217      -5.5734      1.00000
    218      -5.5455      1.00000
    219      -5.5064      1.00000
    220      -5.4900      1.00000
    221      -5.4558      1.00000
    222      -5.3559      1.00000
    223      -5.3070      1.00000
    224      -5.2946      1.00000
    225      -5.2691      1.00000
    226      -5.2602      1.00000
    227      -5.2460      1.00000
    228      -5.2316      1.00000
    229      -5.2210      1.00000
    230      -5.2140      1.00000
    231      -5.2067      1.00000
    232      -5.1969      1.00000
    233      -5.1908      1.00000
    234      -5.1840      1.00000
    235      -5.1736      1.00000
    236      -5.1684      1.00000
    237      -5.1522      1.00000
    238      -5.1461      1.00000
    239      -5.1412      1.00000
    240      -5.1348      1.00000
    241      -5.1254      1.00000
    242      -5.1190      1.00000
    243      -5.1155      1.00000
    244      -5.1074      1.00000
    245      -5.1035      1.00000
    246      -5.0956      1.00000
    247      -5.0913      1.00000
    248      -5.0887      1.00000
    249      -5.0819      1.00000
    250      -5.0796      1.00000
    251      -5.0737      1.00000
    252      -5.0680      1.00000
    253      -5.0596      1.00000
    254      -5.0507      1.00000
    255      -5.0489      1.00000
    256      -5.0382      1.00000
    257      -5.0353      1.00000
    258      -5.0336      1.00000
    259      -5.0281      1.00000
    260      -5.0229      1.00000
    261      -5.0171      1.00000
    262      -5.0126      1.00000
    263      -5.0050      1.00000
    264      -4.9967      1.00000
    265      -4.9937      1.00000
    266      -4.9915      1.00000
    267      -4.9871      1.00000
    268      -4.9812      1.00000
    269      -4.9785      1.00000
    270      -4.9693      1.00000
    271      -4.9651      1.00000
    272      -4.9631      1.00000
    273      -4.9555      1.00000
    274      -4.9502      1.00000
    275      -4.9387      1.00000
    276      -4.9343      1.00000
    277      -4.9313      1.00000
    278      -4.9218      1.00000
    279      -4.9186      1.00000
    280      -4.9098      1.00000
    281      -4.9052      1.00000
    282      -4.9013      1.00000
    283      -4.8973      1.00000
    284      -4.8903      1.00000
    285      -4.8855      1.00000
    286      -4.8721      1.00000
    287      -4.8601      1.00000
    288      -4.8474      1.00000
    289      -4.8280      1.00000
    290      -4.8213      1.00000
    291      -4.8082      1.00000
    292      -4.7832      1.00000
    293      -4.7599      1.00000
    294      -4.7203      1.00000
    295      -4.7035      1.00000
    296      -4.6292      1.00000
    297      -4.6196      1.00000
    298      -4.5806      1.00000
    299      -4.5472      1.00000
    300      -4.5320      1.00000
    301      -4.5121      1.00000
    302      -4.4742      1.00000
    303      -4.3906      1.00000
    304      -4.3473      1.00000
    305      -4.3132      1.00000
    306      -4.2952      1.00000
    307      -4.2349      1.00000
    308      -4.2227      1.00000
    309      -4.1706      1.00000
    310      -4.1001      1.00000
    311      -4.0806      1.00000
    312      -4.0192      1.00000
    313      -3.8401      1.00000
    314      -3.8233      1.00000
    315      -3.7906      1.00000
    316      -3.7393      1.00000
    317      -3.6846      1.00000
    318      -3.5993      1.00000
    319      -3.5840      1.00000
    320      -3.5204      1.00000
    321      -3.4710      1.00000
    322      -3.3849      1.00000
    323      -3.2520      1.00000
    324      -3.2139      1.00000
    325      -3.2012      1.00000
    326      -3.1606      1.00000
    327      -3.1393      1.00000
    328      -3.1224      1.00000
    329      -3.1060      1.00000
    330      -3.0821      1.00000
    331      -3.0681      1.00000
    332      -3.0557      1.00000
    333      -3.0378      1.00000
    334      -3.0171      1.00000
    335      -3.0027      1.00000
    336      -2.9905      1.00000
    337      -2.9597      1.00000
    338      -2.9329      1.00000
    339      -2.9159      1.00000
    340      -2.8906      1.00000
    341      -2.8689      1.00000
    342      -2.8534      1.00000
    343      -2.8495      1.00000
    344      -2.8387      1.00000
    345      -2.8251      1.00000
    346      -2.8125      1.00000
    347      -2.8038      1.00000
    348      -2.7932      1.00000
    349      -2.7890      1.00000
    350      -2.7703      1.00000
    351      -2.7699      1.00000
    352      -2.7485      1.00000
    353      -2.7419      1.00000
    354      -2.7333      1.00000
    355      -2.7147      1.00000
    356      -2.7047      1.00000
    357      -2.6975      1.00000
    358      -2.6849      1.00000
    359      -2.6769      1.00000
    360      -2.6617      1.00000
    361      -2.6479      1.00000
    362      -2.6338      1.00000
    363      -2.6072      1.00000
    364      -2.5877      1.00000
    365      -2.5637      1.00000
    366      -2.5456      1.00000
    367      -2.4922      1.00000
    368      -2.4453      1.00000
    369      -2.3779      1.00000
    370      -2.3260      1.00000
    371      -2.2952      1.00000
    372      -2.2267      1.00000
    373      -2.2142      1.00000
    374      -2.1748      1.00000
    375      -2.1564      1.00000
    376      -2.1253      1.00000
    377      -2.1116      1.00000
    378      -2.0957      1.00000
    379      -2.0876      1.00000
    380      -2.0466      1.00000
    381      -1.9884      1.00000
    382      -1.9076      1.00000
    383      -1.6004      1.00000
    384      -1.5665      1.00000
    385      -1.4820      1.00000
    386      -1.4002      1.00000
    387      -1.3434      1.00000
    388      -1.3006      1.00000
    389      -1.2647      1.00000
    390      -1.2622      1.00000
    391      -1.2356      1.00000
    392      -1.1984      1.00000
    393      -1.1688      1.00000
    394      -1.1232      1.00000
    395      -1.1050      1.00000
    396      -1.0631      1.00000
    397      -1.0541      1.00000
    398      -1.0238      1.00000
    399      -1.0036      1.00000
    400      -0.9766      1.00000
    401      -0.9710      1.00000
    402      -0.9344      1.00000
    403      -0.9071      1.00000
    404      -0.8876      1.00000
    405      -0.8587      1.00000
    406      -0.8470      1.00000
    407      -0.8320      1.00000
    408      -0.8231      1.00000
    409      -0.8167      1.00000
    410      -0.8054      1.00000
    411      -0.7790      1.00000
    412      -0.7511      1.00000
    413      -0.7274      1.00000
    414      -0.6913      1.00000
    415      -0.6680      1.00000
    416      -0.6593      1.00000
    417      -0.6393      1.00000
    418      -0.6261      1.00000
    419      -0.5788      1.00000
    420      -0.5762      1.00000
    421      -0.5372      1.00000
    422      -0.5232      1.00000
    423      -0.5130      1.00000
    424      -0.4983      1.00000
    425      -0.4808      1.00000
    426      -0.4623      1.00000
    427      -0.4395      1.00000
    428      -0.4146      1.00000
    429      -0.3905      1.00000
    430      -0.3652      1.00000
    431      -0.3240      1.00000
    432      -0.2916      1.00000
    433      -0.2792      1.00000
    434      -0.2627      1.00000
    435      -0.2312      1.00000
    436      -0.2215      1.00000
    437      -0.2007      1.00000
    438      -0.1966      1.00000
    439      -0.1814      1.00000
    440      -0.1512      1.00000
    441      -0.1462      1.00000
    442      -0.1281      1.00000
    443      -0.1199      1.00000
    444      -0.1138      1.00000
    445      -0.1002      1.00000
    446      -0.0821      1.00000
    447      -0.0727      1.00000
    448      -0.0556      1.00000
    449      -0.0289      1.00000
    450      -0.0235      1.00000
    451      -0.0061      1.00000
    452      -0.0008      1.00000
    453       0.0200      1.00000
    454       0.0306      1.00000
    455       0.0454      1.00000
    456       0.0581      1.00000
    457       0.0818      1.00000
    458       0.1000      1.00000
    459       0.1261      1.00000
    460       0.1521      1.00000
    461       0.1612      1.00000
    462       0.1693      1.00000
    463       0.1845      1.00000
    464       0.1881      1.00000
    465       0.2022      1.00000
    466       0.2152      1.00000
    467       0.2223      1.00000
    468       0.2388      1.00000
    469       0.2501      1.00000
    470       0.2560      1.00000
    471       0.2681      1.00000
    472       0.2832      1.00000
    473       0.2936      1.00000
    474       0.3159      1.00000
    475       0.3260      1.00000
    476       0.3305      1.00000
    477       0.3504      1.00000
    478       0.3866      1.00000
    479       0.3968      1.00000
    480       0.4114      1.00000
    481       0.4303      1.00000
    482       0.4818      1.00000
    483       0.5177      1.00000
    484       0.5528      1.00000
    485       0.5644      1.00000
    486       0.5758      1.00000
    487       0.6037      1.00000
    488       0.6151      1.00000
    489       0.6350      1.00000
    490       0.6633      1.00000
    491       0.6752      1.00000
    492       0.6981      1.00000
    493       0.7111      1.00000
    494       0.7282      1.00000
    495       0.7560      1.00000
    496       0.8017      1.00000
    497       0.8213      1.00000
    498       0.8415      1.00000
    499       0.8555      1.00000
    500       0.8597      1.00000
    501       0.8686      1.00000
    502       0.9022      1.00000
    503       0.9093      1.00000
    504       0.9175      1.00000
    505       0.9391      1.00000
    506       0.9770      1.00000
    507       1.0065      1.00000
    508       1.0247      1.00000
    509       1.0754      1.00000
    510       1.0898      1.00000
    511       1.0936      1.00000
    512       1.1092      1.00000
    513       1.1245      1.00000
    514       1.1346      1.00000
    515       1.1695      1.00000
    516       1.1807      1.00000
    517       1.1896      1.00000
    518       1.2066      1.00000
    519       1.2217      1.00000
    520       1.2280      1.00000
    521       1.2401      1.00000
    522       1.2620      1.00000
    523       1.2840      1.00000
    524       1.2920      1.00000
    525       1.3120      1.00000
    526       1.3303      1.00000
    527       1.3458      1.00000
    528       1.3806      1.00000
    529       1.3929      1.00000
    530       1.4032      1.00000
    531       1.4226      1.00000
    532       1.4292      1.00000
    533       1.4402      1.00000
    534       1.4566      1.00000
    535       1.4732      1.00000
    536       1.4919      1.00000
    537       1.5027      1.00000
    538       1.5142      1.00000
    539       1.5353      1.00000
    540       1.5495      1.00000
    541       1.5594      1.00000
    542       1.5814      1.00000
    543       1.6135      1.00000
    544       1.6317      1.00000
    545       1.6505      1.00000
    546       1.6587      1.00000
    547       1.6807      1.00000
    548       1.7008      1.00000
    549       1.7142      1.00000
    550       1.7211      1.00000
    551       1.7470      1.00000
    552       1.7493      1.00000
    553       1.7571      1.00000
    554       1.7631      1.00000
    555       1.7736      1.00000
    556       1.7891      1.00000
    557       1.7953      1.00000
    558       1.8034      1.00000
    559       1.8162      1.00000
    560       1.8315      1.00000
    561       1.8426      1.00000
    562       1.8500      1.00000
    563       1.8664      1.00000
    564       1.8764      1.00000
    565       1.8881      1.00000
    566       1.9020      1.00000
    567       1.9082      1.00000
    568       1.9179      1.00000
    569       1.9292      1.00000
    570       1.9497      1.00000
    571       1.9590      1.00000
    572       1.9742      1.00000
    573       2.0053      1.00000
    574       2.0164      1.00000
    575       2.0327      1.00000
    576       2.0657      1.00000
    577       2.0823      1.00000
    578       2.1403      1.00000
    579       2.6200      1.00000
    580       8.0821      0.00000
    581       8.7567      0.00000
    582       8.8169      0.00000
    583       8.8284      0.00000
    584       8.8961      0.00000
    585       9.3504      0.00000
    586       9.4146      0.00000
    587       9.4399      0.00000
    588       9.4586      0.00000
    589       9.4857      0.00000
    590       9.9117      0.00000
    591       9.9278      0.00000
    592      10.0583      0.00000
    593      10.1121      0.00000
    594      10.1370      0.00000
    595      10.2148      0.00000
    596      10.3295      0.00000
    597      10.3512      0.00000
    598      10.3662      0.00000
    599      10.3861      0.00000
    600      10.4103      0.00000
    601      10.4514      0.00000
    602      10.5417      0.00000
    603      10.5805      0.00000
    604      10.7382      0.00000
    605      10.7647      0.00000
    606      10.7867      0.00000
    607      10.8035      0.00000
    608      10.8523      0.00000
    609      10.8831      0.00000
    610      10.9164      0.00000
    611      10.9287      0.00000
    612      10.9574      0.00000
    613      10.9718      0.00000
    614      11.0166      0.00000
    615      11.0268      0.00000
    616      11.0509      0.00000
    617      11.0626      0.00000
    618      11.0925      0.00000
    619      11.1057      0.00000
    620      11.1148      0.00000
    621      11.1508      0.00000
    622      11.1533      0.00000
    623      11.1943      0.00000
    624      11.2393      0.00000
    625      11.2722      0.00000
    626      11.2813      0.00000
    627      11.3098      0.00000
    628      11.3478      0.00000
    629      11.3604      0.00000
    630      11.3791      0.00000
    631      11.3949      0.00000
    632      11.4173      0.00000
    633      11.4383      0.00000
    634      11.4480      0.00000
    635      11.4717      0.00000
    636      11.4996      0.00000
    637      11.5362      0.00000
    638      11.5574      0.00000
    639      11.5807      0.00000
    640      11.6080      0.00000
    641      11.6296      0.00000
    642      11.6539      0.00000
    643      11.7137      0.00000
    644      11.7238      0.00000
    645      11.7357      0.00000
    646      11.7466      0.00000
    647      11.7724      0.00000
    648      11.7825      0.00000
    649      11.8119      0.00000
    650      11.8524      0.00000
    651      11.8639      0.00000
    652      11.8888      0.00000
    653      11.9074      0.00000
    654      11.9285      0.00000
    655      11.9487      0.00000
    656      11.9587      0.00000
    657      11.9747      0.00000
    658      11.9958      0.00000
    659      12.0074      0.00000
    660      12.0233      0.00000
    661      12.1078      0.00000
    662      12.1373      0.00000
    663      12.1631      0.00000
    664      12.1881      0.00000
    665      12.2236      0.00000
    666      12.2345      0.00000
    667      12.3119      0.00000
    668      12.3921      0.00000
    669      12.4338      0.00000
    670      12.4691      0.00000
    671      12.4853      0.00000
    672      12.5151      0.00000
    673      12.5468      0.00000
    674      12.5850      0.00000
    675      12.6240      0.00000
    676      12.6465      0.00000
    677      12.6723      0.00000
    678      12.7389      0.00000
    679      12.7455      0.00000
    680      12.7848      0.00000
    681      12.8125      0.00000
    682      12.8234      0.00000
    683      12.8461      0.00000
    684      12.8944      0.00000
    685      12.9242      0.00000
    686      13.1075      0.00000
    687      13.1741      0.00000
    688      13.2010      0.00000
    689      13.2087      0.00000
    690      13.2389      0.00000
    691      13.2504      0.00000
    692      13.3073      0.00000
    693      13.3394      0.00000
    694      13.3663      0.00000
    695      13.4037      0.00000
    696      13.4258      0.00000
 Fermi energy:         3.6761843928

 spin component 2

 k-point     1 :       0.0000    0.0000    0.0000
  band No.  band energies     occupation 
      1     -50.6278      1.00000
      2     -50.5494      1.00000
      3     -50.5308      1.00000
      4     -50.5040      1.00000
      5     -50.4968      1.00000
      6     -50.4937      1.00000
      7     -50.4929      1.00000
      8     -50.4846      1.00000
      9     -50.4809      1.00000
     10     -50.4794      1.00000
     11     -50.4758      1.00000
     12     -50.4691      1.00000
     13     -50.4615      1.00000
     14     -50.4612      1.00000
     15     -50.4531      1.00000
     16     -50.4489      1.00000
     17     -50.4466      1.00000
     18     -50.4436      1.00000
     19     -50.4430      1.00000
     20     -50.4356      1.00000
     21     -50.4335      1.00000
     22     -50.4295      1.00000
     23     -50.4204      1.00000
     24     -50.4110      1.00000
     25     -50.4026      1.00000
     26     -50.3937      1.00000
     27     -50.3909      1.00000
     28     -50.3904      1.00000
     29     -50.3889      1.00000
     30     -50.3852      1.00000
     31     -50.3824      1.00000
     32     -50.3770      1.00000
     33     -50.3764      1.00000
     34     -50.3729      1.00000
     35     -50.3693      1.00000
     36     -50.3674      1.00000
     37     -50.3665      1.00000
     38     -50.3570      1.00000
     39     -50.3545      1.00000
     40     -50.3536      1.00000
     41     -50.3473      1.00000
     42     -50.3437      1.00000
     43     -50.3435      1.00000
     44     -50.3403      1.00000
     45     -50.3335      1.00000
     46     -50.3271      1.00000
     47     -50.3266      1.00000
     48     -50.3199      1.00000
     49     -50.3150      1.00000
     50     -50.3119      1.00000
     51     -50.3109      1.00000
     52     -50.3072      1.00000
     53     -50.3025      1.00000
     54     -50.2909      1.00000
     55     -50.2866      1.00000
     56     -50.2833      1.00000
     57     -50.2808      1.00000
     58     -50.2731      1.00000
     59     -50.2712      1.00000
     60     -50.2682      1.00000
     61     -50.2673      1.00000
     62     -50.2664      1.00000
     63     -50.2622      1.00000
     64     -50.2599      1.00000
     65     -50.2287      1.00000
     66     -50.2242      1.00000
     67     -50.2177      1.00000
     68     -50.1982      1.00000
     69     -50.1785      1.00000
     70     -46.9640      1.00000
     71     -46.4331      1.00000
     72     -46.2231      1.00000
     73     -18.7837      1.00000
     74     -18.5195      1.00000
     75     -18.4845      1.00000
     76     -18.4403      1.00000
     77     -18.3301      1.00000
     78     -18.2973      1.00000
     79     -18.2416      1.00000
     80     -18.1980      1.00000
     81     -18.1854      1.00000
     82     -18.1457      1.00000
     83     -18.1355      1.00000
     84     -18.1268      1.00000
     85     -18.1129      1.00000
     86     -18.1083      1.00000
     87     -18.0873      1.00000
     88     -18.0799      1.00000
     89     -18.0619      1.00000
     90     -18.0368      1.00000
     91     -18.0343      1.00000
     92     -18.0095      1.00000
     93     -17.9933      1.00000
     94     -17.9797      1.00000
     95     -17.9519      1.00000
     96     -17.9335      1.00000
     97     -17.9133      1.00000
     98     -17.8937      1.00000
     99     -17.8504      1.00000
    100     -16.0628      1.00000
    101     -15.9985      1.00000
    102     -15.9763      1.00000
    103     -15.9582      1.00000
    104     -15.9426      1.00000
    105     -15.9225      1.00000
    106     -15.9057      1.00000
    107     -15.8923      1.00000
    108     -15.8618      1.00000
    109     -15.8499      1.00000
    110     -15.8206      1.00000
    111     -15.8108      1.00000
    112     -15.8085      1.00000
    113     -15.7996      1.00000
    114     -15.7955      1.00000
    115     -15.7758      1.00000
    116     -15.7692      1.00000
    117     -15.7629      1.00000
    118     -15.7500      1.00000
    119     -15.7409      1.00000
    120     -15.7174      1.00000
    121     -15.7132      1.00000
    122     -15.7028      1.00000
    123     -15.6857      1.00000
    124     -15.6611      1.00000
    125     -15.6515      1.00000
    126     -15.6445      1.00000
    127     -15.6282      1.00000
    128     -15.6190      1.00000
    129     -15.5964      1.00000
    130     -15.5908      1.00000
    131     -15.5746      1.00000
    132     -15.5661      1.00000
    133     -15.5491      1.00000
    134     -15.5385      1.00000
    135     -15.5344      1.00000
    136     -15.5184      1.00000
    137     -15.5129      1.00000
    138     -15.5078      1.00000
    139     -15.4992      1.00000
    140     -15.4891      1.00000
    141     -15.4843      1.00000
    142     -15.4723      1.00000
    143     -15.4703      1.00000
    144     -15.4660      1.00000
    145     -15.4549      1.00000
    146     -15.4480      1.00000
    147     -15.4434      1.00000
    148     -15.4292      1.00000
    149     -15.4226      1.00000
    150     -15.4211      1.00000
    151     -15.4189      1.00000
    152     -15.4108      1.00000
    153     -15.4023      1.00000
    154     -15.3960      1.00000
    155     -15.3875      1.00000
    156     -15.3868      1.00000
    157     -15.3754      1.00000
    158     -15.3582      1.00000
    159     -15.3547      1.00000
    160     -15.3509      1.00000
    161     -15.3411      1.00000
    162     -15.3381      1.00000
    163     -15.3224      1.00000
    164     -15.3149      1.00000
    165     -15.3089      1.00000
    166     -15.2999      1.00000
    167     -15.2957      1.00000
    168     -15.2665      1.00000
    169     -15.2508      1.00000
    170     -15.2246      1.00000
    171     -15.1160      1.00000
    172      -6.1882      1.00000
    173      -6.0001      1.00000
    174      -5.9749      1.00000
    175      -5.7288      1.00000
    176      -5.6778      1.00000
    177      -5.6371      1.00000
    178      -5.6217      1.00000
    179      -5.5843      1.00000
    180      -5.5585      1.00000
    181      -5.5389      1.00000
    182      -5.5275      1.00000
    183      -5.5014      1.00000
    184      -5.4654      1.00000
    185      -5.4483      1.00000
    186      -5.4367      1.00000
    187      -5.4286      1.00000
    188      -5.4033      1.00000
    189      -5.3958      1.00000
    190      -5.3729      1.00000
    191      -5.3462      1.00000
    192      -5.2977      1.00000
    193      -5.2099      1.00000
    194      -5.1690      1.00000
    195      -5.1243      1.00000
    196      -4.3424      1.00000
    197      -4.1245      1.00000
    198      -4.0910      1.00000
    199      -3.9906      1.00000
    200      -3.8627      1.00000
    201      -3.8434      1.00000
    202      -3.7333      1.00000
    203      -3.6998      1.00000
    204      -3.6956      1.00000
    205      -3.6724      1.00000
    206      -3.6325      1.00000
    207      -3.6165      1.00000
    208      -3.5872      1.00000
    209      -3.5827      1.00000
    210      -3.5694      1.00000
    211      -3.5580      1.00000
    212      -3.5344      1.00000
    213      -3.5132      1.00000
    214      -3.4845      1.00000
    215      -3.4040      1.00000
    216      -3.3841      1.00000
    217      -3.3640      1.00000
    218      -3.3481      1.00000
    219      -3.3317      1.00000
    220      -3.3179      1.00000
    221      -3.3136      1.00000
    222      -3.3006      1.00000
    223      -3.2906      1.00000
    224      -3.2804      1.00000
    225      -3.2746      1.00000
    226      -3.2603      1.00000
    227      -3.2588      1.00000
    228      -3.2359      1.00000
    229      -3.2337      1.00000
    230      -3.2260      1.00000
    231      -3.2144      1.00000
    232      -3.2016      1.00000
    233      -3.1962      1.00000
    234      -3.1905      1.00000
    235      -3.1737      1.00000
    236      -3.1695      1.00000
    237      -3.1364      1.00000
    238      -3.1141      1.00000
    239      -3.1025      1.00000
    240      -3.0977      1.00000
    241      -3.0764      1.00000
    242      -3.0582      1.00000
    243      -3.0343      1.00000
    244      -3.0047      1.00000
    245      -2.9617      1.00000
    246      -2.9493      1.00000
    247      -2.9418      1.00000
    248      -2.9244      1.00000
    249      -2.9058      1.00000
    250      -2.8965      1.00000
    251      -2.8338      1.00000
    252      -2.7972      1.00000
    253      -2.7882      1.00000
    254      -2.7647      1.00000
    255      -2.7479      1.00000
    256      -2.7382      1.00000
    257      -2.7117      1.00000
    258      -2.6676      1.00000
    259      -2.6551      1.00000
    260      -2.6302      1.00000
    261      -2.6001      1.00000
    262      -2.5390      1.00000
    263      -2.5273      1.00000
    264      -2.4931      1.00000
    265      -2.4753      1.00000
    266      -2.4403      1.00000
    267      -2.2914      1.00000
    268      -2.0339      1.00000
    269      -2.0101      1.00000
    270      -1.9884      1.00000
    271      -1.9711      1.00000
    272      -1.9305      1.00000
    273      -1.8140      1.00000
    274      -1.7918      1.00000
    275      -1.7652      1.00000
    276      -1.7416      1.00000
    277      -1.7144      1.00000
    278      -1.6985      1.00000
    279      -1.6846      1.00000
    280      -1.6690      1.00000
    281      -1.6579      1.00000
    282      -1.6492      1.00000
    283      -1.6411      1.00000
    284      -1.5958      1.00000
    285      -1.5313      1.00000
    286      -1.5005      1.00000
    287      -1.4352      1.00000
    288      -1.3055      1.00000
    289      -1.2595      1.00000
    290      -1.2516      1.00000
    291      -1.2180      1.00000
    292      -1.2008      1.00000
    293      -1.1501      1.00000
    294      -1.1256      1.00000
    295      -1.1020      1.00000
    296      -1.0886      1.00000
    297      -1.0377      1.00000
    298      -1.0304      1.00000
    299      -0.9837      1.00000
    300      -0.9668      1.00000
    301      -0.9507      1.00000
    302      -0.9221      1.00000
    303      -0.9093      1.00000
    304      -0.8983      1.00000
    305      -0.8939      1.00000
    306      -0.8780      1.00000
    307      -0.8650      1.00000
    308      -0.7938      1.00000
    309      -0.7879      1.00000
    310      -0.7719      1.00000
    311      -0.7678      1.00000
    312      -0.7559      1.00000
    313      -0.7380      1.00000
    314      -0.7308      1.00000
    315      -0.7121      1.00000
    316      -0.7021      1.00000
    317      -0.6816      1.00000
    318      -0.6675      1.00000
    319      -0.6530      1.00000
    320      -0.6310      1.00000
    321      -0.6143      1.00000
    322      -0.6008      1.00000
    323      -0.5904      1.00000
    324      -0.5819      1.00000
    325      -0.5792      1.00000
    326      -0.5602      1.00000
    327      -0.5520      1.00000
    328      -0.5284      1.00000
    329      -0.5080      1.00000
    330      -0.4846      1.00000
    331      -0.4472      1.00000
    332      -0.4255      1.00000
    333      -0.4091      1.00000
    334      -0.3828      1.00000
    335      -0.3676      1.00000
    336      -0.3214      1.00000
    337      -0.2312      1.00000
    338      -0.2105      1.00000
    339      -0.1713      1.00000
    340      -0.1355      1.00000
    341      -0.1110      1.00000
    342      -0.0919      1.00000
    343      -0.0840      1.00000
    344      -0.0715      1.00000
    345      -0.0669      1.00000
    346      -0.0332      1.00000
    347      -0.0211      1.00000
    348      -0.0110      1.00000
    349       0.0042      1.00000
    350       0.0136      1.00000
    351       0.0306      1.00000
    352       0.0322      1.00000
    353       0.0497      1.00000
    354       0.0595      1.00000
    355       0.1020      1.00000
    356       0.1097      1.00000
    357       0.1517      1.00000
    358       0.1669      1.00000
    359       0.1838      1.00000
    360       0.1998      1.00000
    361       0.2121      1.00000
    362       0.2333      1.00000
    363       0.2793      1.00000
    364       0.2963      1.00000
    365       0.3015      1.00000
    366       0.3246      1.00000
    367       0.3395      1.00000
    368       0.3430      1.00000
    369       0.3558      1.00000
    370       0.3700      1.00000
    371       0.3950      1.00000
    372       0.3956      1.00000
    373       0.4133      1.00000
    374       0.4272      1.00000
    375       0.4319      1.00000
    376       0.4409      1.00000
    377       0.4707      1.00000
    378       0.4877      1.00000
    379       0.5098      1.00000
    380       0.5158      1.00000
    381       0.5243      1.00000
    382       0.5379      1.00000
    383       0.5535      1.00000
    384       0.5650      1.00000
    385       0.5900      1.00000
    386       0.6133      1.00000
    387       0.6387      1.00000
    388       0.6606      1.00000
    389       0.6636      1.00000
    390       0.6759      1.00000
    391       0.6882      1.00000
    392       0.6966      1.00000
    393       0.7208      1.00000
    394       0.7386      1.00000
    395       0.7508      1.00000
    396       0.7614      1.00000
    397       0.7866      1.00000
    398       0.8069      1.00000
    399       0.8248      1.00000
    400       0.8383      1.00000
    401       0.8423      1.00000
    402       0.8576      1.00000
    403       0.8807      1.00000
    404       0.9028      1.00000
    405       0.9109      1.00000
    406       0.9249      1.00000
    407       0.9843      1.00000
    408       1.0385      1.00000
    409       1.0489      1.00000
    410       1.0604      1.00000
    411       1.0780      1.00000
    412       1.0947      1.00000
    413       1.1185      1.00000
    414       1.1846      1.00000
    415       1.2059      1.00000
    416       1.2154      1.00000
    417       1.2299      1.00000
    418       1.2405      1.00000
    419       1.2506      1.00000
    420       1.2825      1.00000
    421       1.2927      1.00000
    422       1.3067      1.00000
    423       1.3153      1.00000
    424       1.3288      1.00000
    425       1.3487      1.00000
    426       1.3532      1.00000
    427       1.3837      1.00000
    428       1.3906      1.00000
    429       1.4165      1.00000
    430       1.4494      1.00000
    431       1.4517      1.00000
    432       1.4674      1.00000
    433       1.4707      1.00000
    434       1.4878      1.00000
    435       1.4941      1.00000
    436       1.5149      1.00000
    437       1.5283      1.00000
    438       1.5427      1.00000
    439       1.5754      1.00000
    440       1.5867      1.00000
    441       1.6334      1.00000
    442       1.6483      1.00000
    443       1.6538      1.00000
    444       1.6690      1.00000
    445       1.6863      1.00000
    446       1.6984      1.00000
    447       1.7359      1.00000
    448       1.7778      1.00000
    449       1.7898      1.00000
    450       1.8076      1.00000
    451       1.8136      1.00000
    452       1.8203      1.00000
    453       1.8377      1.00000
    454       1.8528      1.00000
    455       1.8676      1.00000
    456       1.9309      1.00000
    457       1.9999      1.00000
    458       2.0341      1.00000
    459       2.0997      1.00000
    460       3.2521      1.00000
    461       4.3227      0.00000
    462       4.3594      0.00000
    463       4.3886      0.00000
    464       4.3958      0.00000
    465       4.4405      0.00000
    466       4.4467      0.00000
    467       4.4562      0.00000
    468       4.4672      0.00000
    469       4.4743      0.00000
    470       4.4827      0.00000
    471       4.4886      0.00000
    472       4.5005      0.00000
    473       4.5162      0.00000
    474       4.5264      0.00000
    475       4.5328      0.00000
    476       4.5423      0.00000
    477       4.5448      0.00000
    478       4.5540      0.00000
    479       4.5611      0.00000
    480       4.5692      0.00000
    481       4.5707      0.00000
    482       4.5763      0.00000
    483       4.5808      0.00000
    484       4.5893      0.00000
    485       4.5950      0.00000
    486       4.6004      0.00000
    487       4.6029      0.00000
    488       4.6050      0.00000
    489       4.6163      0.00000
    490       4.6199      0.00000
    491       4.6302      0.00000
    492       4.6310      0.00000
    493       4.6375      0.00000
    494       4.6405      0.00000
    495       4.6477      0.00000
    496       4.6536      0.00000
    497       4.6551      0.00000
    498       4.6609      0.00000
    499       4.6708      0.00000
    500       4.6746      0.00000
    501       4.6802      0.00000
    502       4.6865      0.00000
    503       4.6998      0.00000
    504       4.7032      0.00000
    505       4.7103      0.00000
    506       4.7124      0.00000
    507       4.7212      0.00000
    508       4.7281      0.00000
    509       4.7340      0.00000
    510       4.7465      0.00000
    511       4.7584      0.00000
    512       4.7718      0.00000
    513       4.7848      0.00000
    514       4.7957      0.00000
    515       4.7981      0.00000
    516       4.8002      0.00000
    517       4.8048      0.00000
    518       4.8100      0.00000
    519       4.8231      0.00000
    520       4.8300      0.00000
    521       4.8329      0.00000
    522       4.8442      0.00000
    523       4.8564      0.00000
    524       4.8786      0.00000
    525       4.8816      0.00000
    526       4.8926      0.00000
    527       4.9115      0.00000
    528       4.9206      0.00000
    529       4.9462      0.00000
    530       4.9503      0.00000
    531       4.9743      0.00000
    532       4.9850      0.00000
    533       4.9983      0.00000
    534       5.0045      0.00000
    535       5.0078      0.00000
    536       5.0429      0.00000
    537       5.0459      0.00000
    538       5.0564      0.00000
    539       5.0816      0.00000
    540       5.0917      0.00000
    541       5.1022      0.00000
    542       5.1207      0.00000
    543       5.1528      0.00000
    544       5.1823      0.00000
    545       5.2158      0.00000
    546       5.2529      0.00000
    547       5.2693      0.00000
    548       5.2793      0.00000
    549       5.2953      0.00000
    550       5.2963      0.00000
    551       5.3153      0.00000
    552       5.3315      0.00000
    553       5.3604      0.00000
    554       5.3810      0.00000
    555       5.3929      0.00000
    556       5.4366      0.00000
    557       5.4937      0.00000
    558       5.5232      0.00000
    559       5.5379      0.00000
    560       5.5490      0.00000
    561       5.5576      0.00000
    562       5.5911      0.00000
    563       5.6291      0.00000
    564       5.6562      0.00000
    565       5.6678      0.00000
    566       5.6821      0.00000
    567       5.6881      0.00000
    568       5.6993      0.00000
    569       5.7110      0.00000
    570       5.7241      0.00000
    571       5.7311      0.00000
    572       5.7382      0.00000
    573       5.7530      0.00000
    574       5.7771      0.00000
    575       5.8019      0.00000
    576       7.8084      0.00000
    577       7.9246      0.00000
    578       7.9793      0.00000
    579       8.2287      0.00000
    580       8.7223      0.00000
    581       8.7624      0.00000
    582       9.2439      0.00000
    583       9.9250      0.00000
    584       9.9617      0.00000
    585      10.1339      0.00000
    586      10.2054      0.00000
    587      10.3497      0.00000
    588      10.4060      0.00000
    589      10.4475      0.00000
    590      10.4547      0.00000
    591      10.4834      0.00000
    592      10.5169      0.00000
    593      10.5245      0.00000
    594      10.5439      0.00000
    595      10.5749      0.00000
    596      10.5974      0.00000
    597      10.7389      0.00000
    598      10.8078      0.00000
    599      10.8566      0.00000
    600      10.9009      0.00000
    601      10.9544      0.00000
    602      10.9643      0.00000
    603      10.9860      0.00000
    604      11.0256      0.00000
    605      11.0438      0.00000
    606      11.1463      0.00000
    607      11.2136      0.00000
    608      11.2296      0.00000
    609      11.2360      0.00000
    610      11.2796      0.00000
    611      11.3226      0.00000
    612      11.3356      0.00000
    613      11.3502      0.00000
    614      11.3888      0.00000
    615      11.4118      0.00000
    616      11.4290      0.00000
    617      11.4898      0.00000
    618      11.5111      0.00000
    619      11.5285      0.00000
    620      11.5500      0.00000
    621      11.5672      0.00000
    622      11.5969      0.00000
    623      11.6003      0.00000
    624      11.6205      0.00000
    625      11.6350      0.00000
    626      11.6526      0.00000
    627      11.6695      0.00000
    628      11.6868      0.00000
    629      11.6939      0.00000
    630      11.7122      0.00000
    631      11.7278      0.00000
    632      11.7460      0.00000
    633      11.7577      0.00000
    634      11.7937      0.00000
    635      11.8139      0.00000
    636      11.8336      0.00000
    637      11.8817      0.00000
    638      11.8849      0.00000
    639      11.9475      0.00000
    640      11.9790      0.00000
    641      11.9911      0.00000
    642      11.9984      0.00000
    643      12.0040      0.00000
    644      12.0209      0.00000
    645      12.0612      0.00000
    646      12.1011      0.00000
    647      12.1169      0.00000
    648      12.1425      0.00000
    649      12.1668      0.00000
    650      12.2076      0.00000
    651      12.2297      0.00000
    652      12.2548      0.00000
    653      12.2702      0.00000
    654      12.3096      0.00000
    655      12.3699      0.00000
    656      12.3784      0.00000
    657      12.3900      0.00000
    658      12.4258      0.00000
    659      12.4539      0.00000
    660      12.4712      0.00000
    661      12.4855      0.00000
    662      12.4984      0.00000
    663      12.5106      0.00000
    664      12.5219      0.00000
    665      12.5364      0.00000
    666      12.5703      0.00000
    667      12.7095      0.00000
    668      12.7416      0.00000
    669      12.7672      0.00000
    670      12.7878      0.00000
    671      12.8060      0.00000
    672      12.8193      0.00000
    673      12.8490      0.00000
    674      12.8950      0.00000
    675      12.9013      0.00000
    676      12.9599      0.00000
    677      12.9883      0.00000
    678      13.1773      0.00000
    679      13.2066      0.00000
    680      13.2849      0.00000
    681      13.2986      0.00000
    682      13.3255      0.00000
    683      13.3433      0.00000
    684      13.3974      0.00000
    685      13.4019      0.00000
    686      13.4175      0.00000
    687      13.4622      0.00000
    688      13.4958      0.00000
    689      13.5283      0.00000
    690      13.5618      0.00000
    691      13.6116      0.00000
    692      13.6631      0.00000
    693      13.7464      0.00000
    694      13.7683      0.00000
    695      13.8312      0.00000
    696      13.9474      0.00000

 k-point     2 :       0.3333    0.0000    0.0000
  band No.  band energies     occupation 
      1     -50.6278      1.00000
      2     -50.5494      1.00000
      3     -50.5308      1.00000
      4     -50.5040      1.00000
      5     -50.4968      1.00000
      6     -50.4937      1.00000
      7     -50.4929      1.00000
      8     -50.4846      1.00000
      9     -50.4809      1.00000
     10     -50.4794      1.00000
     11     -50.4758      1.00000
     12     -50.4691      1.00000
     13     -50.4615      1.00000
     14     -50.4612      1.00000
     15     -50.4531      1.00000
     16     -50.4489      1.00000
     17     -50.4466      1.00000
     18     -50.4436      1.00000
     19     -50.4430      1.00000
     20     -50.4356      1.00000
     21     -50.4335      1.00000
     22     -50.4295      1.00000
     23     -50.4204      1.00000
     24     -50.4110      1.00000
     25     -50.4026      1.00000
     26     -50.3937      1.00000
     27     -50.3909      1.00000
     28     -50.3904      1.00000
     29     -50.3889      1.00000
     30     -50.3852      1.00000
     31     -50.3824      1.00000
     32     -50.3770      1.00000
     33     -50.3764      1.00000
     34     -50.3729      1.00000
     35     -50.3693      1.00000
     36     -50.3674      1.00000
     37     -50.3665      1.00000
     38     -50.3570      1.00000
     39     -50.3545      1.00000
     40     -50.3536      1.00000
     41     -50.3473      1.00000
     42     -50.3437      1.00000
     43     -50.3435      1.00000
     44     -50.3403      1.00000
     45     -50.3335      1.00000
     46     -50.3271      1.00000
     47     -50.3266      1.00000
     48     -50.3199      1.00000
     49     -50.3150      1.00000
     50     -50.3119      1.00000
     51     -50.3109      1.00000
     52     -50.3072      1.00000
     53     -50.3025      1.00000
     54     -50.2909      1.00000
     55     -50.2866      1.00000
     56     -50.2833      1.00000
     57     -50.2808      1.00000
     58     -50.2731      1.00000
     59     -50.2712      1.00000
     60     -50.2682      1.00000
     61     -50.2673      1.00000
     62     -50.2664      1.00000
     63     -50.2622      1.00000
     64     -50.2599      1.00000
     65     -50.2287      1.00000
     66     -50.2242      1.00000
     67     -50.2177      1.00000
     68     -50.1982      1.00000
     69     -50.1785      1.00000
     70     -46.9640      1.00000
     71     -46.4332      1.00000
     72     -46.2231      1.00000
     73     -18.7840      1.00000
     74     -18.5192      1.00000
     75     -18.4839      1.00000
     76     -18.4058      1.00000
     77     -18.3087      1.00000
     78     -18.2978      1.00000
     79     -18.2549      1.00000
     80     -18.2195      1.00000
     81     -18.1966      1.00000
     82     -18.1855      1.00000
     83     -18.1691      1.00000
     84     -18.1444      1.00000
     85     -18.1158      1.00000
     86     -18.1037      1.00000
     87     -18.0851      1.00000
     88     -18.0663      1.00000
     89     -18.0417      1.00000
     90     -18.0299      1.00000
     91     -18.0122      1.00000
     92     -18.0030      1.00000
     93     -17.9891      1.00000
     94     -17.9765      1.00000
     95     -17.9526      1.00000
     96     -17.9349      1.00000
     97     -17.9125      1.00000
     98     -17.8945      1.00000
     99     -17.8537      1.00000
    100     -16.0548      1.00000
    101     -15.9843      1.00000
    102     -15.9631      1.00000
    103     -15.9395      1.00000
    104     -15.9207      1.00000
    105     -15.9107      1.00000
    106     -15.8983      1.00000
    107     -15.8746      1.00000
    108     -15.8617      1.00000
    109     -15.8486      1.00000
    110     -15.8382      1.00000
    111     -15.8318      1.00000
    112     -15.8253      1.00000
    113     -15.8098      1.00000
    114     -15.7935      1.00000
    115     -15.7848      1.00000
    116     -15.7793      1.00000
    117     -15.7688      1.00000
    118     -15.7658      1.00000
    119     -15.7406      1.00000
    120     -15.7208      1.00000
    121     -15.7117      1.00000
    122     -15.6975      1.00000
    123     -15.6905      1.00000
    124     -15.6664      1.00000
    125     -15.6533      1.00000
    126     -15.6290      1.00000
    127     -15.6097      1.00000
    128     -15.5969      1.00000
    129     -15.5904      1.00000
    130     -15.5812      1.00000
    131     -15.5731      1.00000
    132     -15.5545      1.00000
    133     -15.5475      1.00000
    134     -15.5419      1.00000
    135     -15.5406      1.00000
    136     -15.5295      1.00000
    137     -15.5242      1.00000
    138     -15.5145      1.00000
    139     -15.5129      1.00000
    140     -15.5033      1.00000
    141     -15.4978      1.00000
    142     -15.4905      1.00000
    143     -15.4826      1.00000
    144     -15.4791      1.00000
    145     -15.4755      1.00000
    146     -15.4569      1.00000
    147     -15.4357      1.00000
    148     -15.4296      1.00000
    149     -15.4235      1.00000
    150     -15.4199      1.00000
    151     -15.4110      1.00000
    152     -15.4024      1.00000
    153     -15.3949      1.00000
    154     -15.3915      1.00000
    155     -15.3833      1.00000
    156     -15.3744      1.00000
    157     -15.3667      1.00000
    158     -15.3563      1.00000
    159     -15.3495      1.00000
    160     -15.3441      1.00000
    161     -15.3387      1.00000
    162     -15.3305      1.00000
    163     -15.3255      1.00000
    164     -15.3215      1.00000
    165     -15.3134      1.00000
    166     -15.3044      1.00000
    167     -15.2872      1.00000
    168     -15.2666      1.00000
    169     -15.2552      1.00000
    170     -15.2267      1.00000
    171     -15.1162      1.00000
    172      -6.0722      1.00000
    173      -5.8851      1.00000
    174      -5.8597      1.00000
    175      -5.7755      1.00000
    176      -5.7187      1.00000
    177      -5.6683      1.00000
    178      -5.6027      1.00000
    179      -5.5904      1.00000
    180      -5.5771      1.00000
    181      -5.5665      1.00000
    182      -5.5376      1.00000
    183      -5.5279      1.00000
    184      -5.5070      1.00000
    185      -5.4689      1.00000
    186      -5.4477      1.00000
    187      -5.4396      1.00000
    188      -5.4157      1.00000
    189      -5.4054      1.00000
    190      -5.3954      1.00000
    191      -5.3666      1.00000
    192      -5.2886      1.00000
    193      -5.2800      1.00000
    194      -5.2215      1.00000
    195      -5.1375      1.00000
    196      -4.2813      1.00000
    197      -4.0995      1.00000
    198      -4.0447      1.00000
    199      -4.0250      1.00000
    200      -3.9072      1.00000
    201      -3.8880      1.00000
    202      -3.6951      1.00000
    203      -3.6738      1.00000
    204      -3.6604      1.00000
    205      -3.6314      1.00000
    206      -3.5994      1.00000
    207      -3.5838      1.00000
    208      -3.5655      1.00000
    209      -3.5531      1.00000
    210      -3.5419      1.00000
    211      -3.5253      1.00000
    212      -3.5006      1.00000
    213      -3.4821      1.00000
    214      -3.4676      1.00000
    215      -3.4562      1.00000
    216      -3.4511      1.00000
    217      -3.4197      1.00000
    218      -3.4081      1.00000
    219      -3.3881      1.00000
    220      -3.3695      1.00000
    221      -3.3623      1.00000
    222      -3.3483      1.00000
    223      -3.3193      1.00000
    224      -3.2871      1.00000
    225      -3.2741      1.00000
    226      -3.2595      1.00000
    227      -3.2459      1.00000
    228      -3.2371      1.00000
    229      -3.2284      1.00000
    230      -3.2197      1.00000
    231      -3.2084      1.00000
    232      -3.2043      1.00000
    233      -3.1877      1.00000
    234      -3.1734      1.00000
    235      -3.1476      1.00000
    236      -3.1244      1.00000
    237      -3.1002      1.00000
    238      -3.0809      1.00000
    239      -3.0561      1.00000
    240      -3.0439      1.00000
    241      -3.0331      1.00000
    242      -3.0239      1.00000
    243      -3.0055      1.00000
    244      -2.9834      1.00000
    245      -2.9596      1.00000
    246      -2.9530      1.00000
    247      -2.9389      1.00000
    248      -2.9168      1.00000
    249      -2.9079      1.00000
    250      -2.8982      1.00000
    251      -2.8637      1.00000
    252      -2.8553      1.00000
    253      -2.7938      1.00000
    254      -2.7788      1.00000
    255      -2.7542      1.00000
    256      -2.7420      1.00000
    257      -2.7015      1.00000
    258      -2.6924      1.00000
    259      -2.6898      1.00000
    260      -2.6838      1.00000
    261      -2.6534      1.00000
    262      -2.6490      1.00000
    263      -2.6336      1.00000
    264      -2.6211      1.00000
    265      -2.5594      1.00000
    266      -2.4474      1.00000
    267      -2.3799      1.00000
    268      -1.9840      1.00000
    269      -1.9406      1.00000
    270      -1.9136      1.00000
    271      -1.9088      1.00000
    272      -1.8710      1.00000
    273      -1.8016      1.00000
    274      -1.7726      1.00000
    275      -1.7608      1.00000
    276      -1.7513      1.00000
    277      -1.7341      1.00000
    278      -1.7194      1.00000
    279      -1.7016      1.00000
    280      -1.6863      1.00000
    281      -1.6790      1.00000
    282      -1.6466      1.00000
    283      -1.6257      1.00000
    284      -1.5725      1.00000
    285      -1.5014      1.00000
    286      -1.4362      1.00000
    287      -1.3956      1.00000
    288      -1.2758      1.00000
    289      -1.2409      1.00000
    290      -1.1957      1.00000
    291      -1.1769      1.00000
    292      -1.1526      1.00000
    293      -1.1216      1.00000
    294      -1.0727      1.00000
    295      -1.0512      1.00000
    296      -1.0341      1.00000
    297      -0.9816      1.00000
    298      -0.9738      1.00000
    299      -0.9523      1.00000
    300      -0.9367      1.00000
    301      -0.9174      1.00000
    302      -0.9059      1.00000
    303      -0.8950      1.00000
    304      -0.8816      1.00000
    305      -0.8671      1.00000
    306      -0.8582      1.00000
    307      -0.8330      1.00000
    308      -0.8214      1.00000
    309      -0.8094      1.00000
    310      -0.7818      1.00000
    311      -0.7645      1.00000
    312      -0.7578      1.00000
    313      -0.7413      1.00000
    314      -0.7161      1.00000
    315      -0.7045      1.00000
    316      -0.6615      1.00000
    317      -0.6329      1.00000
    318      -0.6282      1.00000
    319      -0.6186      1.00000
    320      -0.6025      1.00000
    321      -0.5938      1.00000
    322      -0.5804      1.00000
    323      -0.5677      1.00000
    324      -0.5537      1.00000
    325      -0.5403      1.00000
    326      -0.5097      1.00000
    327      -0.5066      1.00000
    328      -0.4757      1.00000
    329      -0.4665      1.00000
    330      -0.4489      1.00000
    331      -0.4433      1.00000
    332      -0.4270      1.00000
    333      -0.4005      1.00000
    334      -0.3787      1.00000
    335      -0.3499      1.00000
    336      -0.3231      1.00000
    337      -0.2587      1.00000
    338      -0.1972      1.00000
    339      -0.1779      1.00000
    340      -0.1697      1.00000
    341      -0.1597      1.00000
    342      -0.1511      1.00000
    343      -0.1371      1.00000
    344      -0.1330      1.00000
    345      -0.1218      1.00000
    346      -0.1041      1.00000
    347      -0.0941      1.00000
    348      -0.0889      1.00000
    349      -0.0720      1.00000
    350      -0.0609      1.00000
    351      -0.0436      1.00000
    352      -0.0024      1.00000
    353       0.0121      1.00000
    354       0.0330      1.00000
    355       0.0503      1.00000
    356       0.0571      1.00000
    357       0.0797      1.00000
    358       0.0922      1.00000
    359       0.1037      1.00000
    360       0.1054      1.00000
    361       0.1272      1.00000
    362       0.1530      1.00000
    363       0.1761      1.00000
    364       0.2073      1.00000
    365       0.2325      1.00000
    366       0.2934      1.00000
    367       0.3073      1.00000
    368       0.3284      1.00000
    369       0.3302      1.00000
    370       0.3508      1.00000
    371       0.3537      1.00000
    372       0.3630      1.00000
    373       0.3727      1.00000
    374       0.3868      1.00000
    375       0.4067      1.00000
    376       0.4152      1.00000
    377       0.4320      1.00000
    378       0.4397      1.00000
    379       0.4560      1.00000
    380       0.4735      1.00000
    381       0.4906      1.00000
    382       0.5244      1.00000
    383       0.5498      1.00000
    384       0.5538      1.00000
    385       0.5775      1.00000
    386       0.5992      1.00000
    387       0.6122      1.00000
    388       0.6942      1.00000
    389       0.7266      1.00000
    390       0.7720      1.00000
    391       0.7854      1.00000
    392       0.8025      1.00000
    393       0.8204      1.00000
    394       0.8265      1.00000
    395       0.8416      1.00000
    396       0.8471      1.00000
    397       0.8636      1.00000
    398       0.8695      1.00000
    399       0.8833      1.00000
    400       0.9219      1.00000
    401       0.9430      1.00000
    402       0.9744      1.00000
    403       0.9893      1.00000
    404       0.9998      1.00000
    405       1.0119      1.00000
    406       1.0213      1.00000
    407       1.0345      1.00000
    408       1.0439      1.00000
    409       1.0690      1.00000
    410       1.0880      1.00000
    411       1.1028      1.00000
    412       1.1433      1.00000
    413       1.1555      1.00000
    414       1.1680      1.00000
    415       1.1820      1.00000
    416       1.2063      1.00000
    417       1.2120      1.00000
    418       1.2253      1.00000
    419       1.2331      1.00000
    420       1.2460      1.00000
    421       1.2545      1.00000
    422       1.2742      1.00000
    423       1.3053      1.00000
    424       1.3137      1.00000
    425       1.3298      1.00000
    426       1.3529      1.00000
    427       1.3745      1.00000
    428       1.3984      1.00000
    429       1.4072      1.00000
    430       1.4174      1.00000
    431       1.4304      1.00000
    432       1.4510      1.00000
    433       1.4542      1.00000
    434       1.4667      1.00000
    435       1.4768      1.00000
    436       1.5017      1.00000
    437       1.5185      1.00000
    438       1.5457      1.00000
    439       1.5595      1.00000
    440       1.5836      1.00000
    441       1.6165      1.00000
    442       1.6367      1.00000
    443       1.6461      1.00000
    444       1.6564      1.00000
    445       1.6658      1.00000
    446       1.6733      1.00000
    447       1.6847      1.00000
    448       1.6928      1.00000
    449       1.7335      1.00000
    450       1.7918      1.00000
    451       1.8074      1.00000
    452       1.8176      1.00000
    453       1.8280      1.00000
    454       1.8596      1.00000
    455       1.8834      1.00000
    456       1.9435      1.00000
    457       2.0211      1.00000
    458       2.0340      1.00000
    459       2.1112      1.00000
    460       3.2500      1.00000
    461       4.3302      0.00000
    462       4.3723      0.00000
    463       4.3887      0.00000
    464       4.3953      0.00000
    465       4.4385      0.00000
    466       4.4466      0.00000
    467       4.4516      0.00000
    468       4.4719      0.00000
    469       4.4775      0.00000
    470       4.4859      0.00000
    471       4.4895      0.00000
    472       4.4977      0.00000
    473       4.5018      0.00000
    474       4.5233      0.00000
    475       4.5336      0.00000
    476       4.5386      0.00000
    477       4.5482      0.00000
    478       4.5541      0.00000
    479       4.5639      0.00000
    480       4.5701      0.00000
    481       4.5732      0.00000
    482       4.5784      0.00000
    483       4.5857      0.00000
    484       4.5917      0.00000
    485       4.6031      0.00000
    486       4.6062      0.00000
    487       4.6122      0.00000
    488       4.6184      0.00000
    489       4.6271      0.00000
    490       4.6304      0.00000
    491       4.6356      0.00000
    492       4.6396      0.00000
    493       4.6449      0.00000
    494       4.6496      0.00000
    495       4.6563      0.00000
    496       4.6621      0.00000
    497       4.6670      0.00000
    498       4.6710      0.00000
    499       4.6751      0.00000
    500       4.6834      0.00000
    501       4.6852      0.00000
    502       4.6896      0.00000
    503       4.6924      0.00000
    504       4.7058      0.00000
    505       4.7083      0.00000
    506       4.7185      0.00000
    507       4.7262      0.00000
    508       4.7295      0.00000
    509       4.7362      0.00000
    510       4.7552      0.00000
    511       4.7569      0.00000
    512       4.7620      0.00000
    513       4.7785      0.00000
    514       4.7858      0.00000
    515       4.7925      0.00000
    516       4.7972      0.00000
    517       4.8026      0.00000
    518       4.8084      0.00000
    519       4.8181      0.00000
    520       4.8233      0.00000
    521       4.8295      0.00000
    522       4.8350      0.00000
    523       4.8486      0.00000
    524       4.8590      0.00000
    525       4.8690      0.00000
    526       4.8861      0.00000
    527       4.8966      0.00000
    528       4.9051      0.00000
    529       4.9167      0.00000
    530       4.9291      0.00000
    531       4.9447      0.00000
    532       4.9568      0.00000
    533       4.9710      0.00000
    534       4.9928      0.00000
    535       5.0027      0.00000
    536       5.0271      0.00000
    537       5.0349      0.00000
    538       5.0603      0.00000
    539       5.0719      0.00000
    540       5.0829      0.00000
    541       5.0899      0.00000
    542       5.1044      0.00000
    543       5.1572      0.00000
    544       5.1840      0.00000
    545       5.2281      0.00000
    546       5.2459      0.00000
    547       5.2600      0.00000
    548       5.2804      0.00000
    549       5.2867      0.00000
    550       5.2933      0.00000
    551       5.3027      0.00000
    552       5.3285      0.00000
    553       5.3437      0.00000
    554       5.3679      0.00000
    555       5.4525      0.00000
    556       5.4832      0.00000
    557       5.5228      0.00000
    558       5.5357      0.00000
    559       5.5533      0.00000
    560       5.5634      0.00000
    561       5.5782      0.00000
    562       5.6044      0.00000
    563       5.6087      0.00000
    564       5.6323      0.00000
    565       5.6665      0.00000
    566       5.6735      0.00000
    567       5.6914      0.00000
    568       5.7002      0.00000
    569       5.7044      0.00000
    570       5.7184      0.00000
    571       5.7353      0.00000
    572       5.7512      0.00000
    573       5.7704      0.00000
    574       5.7808      0.00000
    575       5.8061      0.00000
    576       7.8245      0.00000
    577       7.9775      0.00000
    578       8.2258      0.00000
    579       8.2678      0.00000
    580       8.9738      0.00000
    581       9.0236      0.00000
    582       9.0804      0.00000
    583       9.3491      0.00000
    584       9.7087      0.00000
    585       9.7479      0.00000
    586      10.0188      0.00000
    587      10.0339      0.00000
    588      10.4444      0.00000
    589      10.4925      0.00000
    590      10.5103      0.00000
    591      10.5246      0.00000
    592      10.5328      0.00000
    593      10.5627      0.00000
    594      10.7278      0.00000
    595      10.7836      0.00000
    596      10.8088      0.00000
    597      10.8679      0.00000
    598      10.9062      0.00000
    599      10.9415      0.00000
    600      10.9638      0.00000
    601      10.9668      0.00000
    602      10.9825      0.00000
    603      11.0898      0.00000
    604      11.1060      0.00000
    605      11.1278      0.00000
    606      11.1598      0.00000
    607      11.1868      0.00000
    608      11.2474      0.00000
    609      11.2638      0.00000
    610      11.2905      0.00000
    611      11.3020      0.00000
    612      11.3101      0.00000
    613      11.3533      0.00000
    614      11.3940      0.00000
    615      11.4038      0.00000
    616      11.4626      0.00000
    617      11.4912      0.00000
    618      11.5215      0.00000
    619      11.5360      0.00000
    620      11.5528      0.00000
    621      11.5657      0.00000
    622      11.5795      0.00000
    623      11.5987      0.00000
    624      11.6066      0.00000
    625      11.6189      0.00000
    626      11.6329      0.00000
    627      11.6442      0.00000
    628      11.6562      0.00000
    629      11.6623      0.00000
    630      11.6725      0.00000
    631      11.6848      0.00000
    632      11.7223      0.00000
    633      11.7530      0.00000
    634      11.7892      0.00000
    635      11.8168      0.00000
    636      11.8446      0.00000
    637      11.8920      0.00000
    638      11.9279      0.00000
    639      11.9501      0.00000
    640      11.9684      0.00000
    641      11.9797      0.00000
    642      11.9986      0.00000
    643      12.0187      0.00000
    644      12.0301      0.00000
    645      12.0625      0.00000
    646      12.1288      0.00000
    647      12.1652      0.00000
    648      12.1890      0.00000
    649      12.2214      0.00000
    650      12.2334      0.00000
    651      12.2430      0.00000
    652      12.2659      0.00000
    653      12.2752      0.00000
    654      12.2831      0.00000
    655      12.2910      0.00000
    656      12.3153      0.00000
    657      12.3605      0.00000
    658      12.3803      0.00000
    659      12.4026      0.00000
    660      12.4180      0.00000
    661      12.4358      0.00000
    662      12.4821      0.00000
    663      12.5115      0.00000
    664      12.5263      0.00000
    665      12.5651      0.00000
    666      12.5694      0.00000
    667      12.5914      0.00000
    668      12.6097      0.00000
    669      12.6347      0.00000
    670      12.7906      0.00000
    671      12.8356      0.00000
    672      12.8996      0.00000
    673      12.9193      0.00000
    674      12.9568      0.00000
    675      13.1375      0.00000
    676      13.1928      0.00000
    677      13.2089      0.00000
    678      13.2266      0.00000
    679      13.2415      0.00000
    680      13.2759      0.00000
    681      13.2955      0.00000
    682      13.3621      0.00000
    683      13.3761      0.00000
    684      13.4106      0.00000
    685      13.4438      0.00000
    686      13.4624      0.00000
    687      13.4731      0.00000
    688      13.4915      0.00000
    689      13.5178      0.00000
    690      13.5511      0.00000
    691      13.5726      0.00000
    692      13.5958      0.00000
    693      13.6006      0.00000
    694      13.6903      0.00000
    695      13.7517      0.00000
    696      13.8439      0.00000

 k-point     3 :       0.0000    0.0000    0.3333
  band No.  band energies     occupation 
      1     -50.6278      1.00000
      2     -50.5494      1.00000
      3     -50.5308      1.00000
      4     -50.5040      1.00000
      5     -50.4968      1.00000
      6     -50.4937      1.00000
      7     -50.4929      1.00000
      8     -50.4846      1.00000
      9     -50.4809      1.00000
     10     -50.4794      1.00000
     11     -50.4758      1.00000
     12     -50.4691      1.00000
     13     -50.4615      1.00000
     14     -50.4612      1.00000
     15     -50.4531      1.00000
     16     -50.4489      1.00000
     17     -50.4466      1.00000
     18     -50.4436      1.00000
     19     -50.4430      1.00000
     20     -50.4356      1.00000
     21     -50.4335      1.00000
     22     -50.4295      1.00000
     23     -50.4204      1.00000
     24     -50.4110      1.00000
     25     -50.4026      1.00000
     26     -50.3937      1.00000
     27     -50.3909      1.00000
     28     -50.3904      1.00000
     29     -50.3889      1.00000
     30     -50.3852      1.00000
     31     -50.3824      1.00000
     32     -50.3770      1.00000
     33     -50.3764      1.00000
     34     -50.3729      1.00000
     35     -50.3693      1.00000
     36     -50.3674      1.00000
     37     -50.3665      1.00000
     38     -50.3570      1.00000
     39     -50.3545      1.00000
     40     -50.3536      1.00000
     41     -50.3473      1.00000
     42     -50.3437      1.00000
     43     -50.3435      1.00000
     44     -50.3403      1.00000
     45     -50.3335      1.00000
     46     -50.3271      1.00000
     47     -50.3266      1.00000
     48     -50.3199      1.00000
     49     -50.3150      1.00000
     50     -50.3119      1.00000
     51     -50.3109      1.00000
     52     -50.3073      1.00000
     53     -50.3025      1.00000
     54     -50.2909      1.00000
     55     -50.2866      1.00000
     56     -50.2833      1.00000
     57     -50.2808      1.00000
     58     -50.2731      1.00000
     59     -50.2712      1.00000
     60     -50.2682      1.00000
     61     -50.2673      1.00000
     62     -50.2664      1.00000
     63     -50.2622      1.00000
     64     -50.2599      1.00000
     65     -50.2287      1.00000
     66     -50.2242      1.00000
     67     -50.2177      1.00000
     68     -50.1982      1.00000
     69     -50.1785      1.00000
     70     -46.9640      1.00000
     71     -46.4332      1.00000
     72     -46.2231      1.00000
     73     -18.7860      1.00000
     74     -18.5201      1.00000
     75     -18.4835      1.00000
     76     -18.4011      1.00000
     77     -18.3171      1.00000
     78     -18.2992      1.00000
     79     -18.2665      1.00000
     80     -18.2313      1.00000
     81     -18.1902      1.00000
     82     -18.1570      1.00000
     83     -18.1329      1.00000
     84     -18.1147      1.00000
     85     -18.1075      1.00000
     86     -18.0922      1.00000
     87     -18.0881      1.00000
     88     -18.0675      1.00000
     89     -18.0550      1.00000
     90     -18.0381      1.00000
     91     -18.0283      1.00000
     92     -18.0233      1.00000
     93     -17.9994      1.00000
     94     -17.9833      1.00000
     95     -17.9646      1.00000
     96     -17.9442      1.00000
     97     -17.9144      1.00000
     98     -17.9002      1.00000
     99     -17.8458      1.00000
    100     -16.0366      1.00000
    101     -15.9873      1.00000
    102     -15.9667      1.00000
    103     -15.9501      1.00000
    104     -15.9320      1.00000
    105     -15.9113      1.00000
    106     -15.9014      1.00000
    107     -15.8826      1.00000
    108     -15.8801      1.00000
    109     -15.8479      1.00000
    110     -15.8356      1.00000
    111     -15.8190      1.00000
    112     -15.7968      1.00000
    113     -15.7817      1.00000
    114     -15.7753      1.00000
    115     -15.7624      1.00000
    116     -15.7592      1.00000
    117     -15.7498      1.00000
    118     -15.7340      1.00000
    119     -15.7297      1.00000
    120     -15.7215      1.00000
    121     -15.7122      1.00000
    122     -15.7078      1.00000
    123     -15.6896      1.00000
    124     -15.6747      1.00000
    125     -15.6600      1.00000
    126     -15.6520      1.00000
    127     -15.6344      1.00000
    128     -15.6264      1.00000
    129     -15.6095      1.00000
    130     -15.5979      1.00000
    131     -15.5894      1.00000
    132     -15.5787      1.00000
    133     -15.5687      1.00000
    134     -15.5565      1.00000
    135     -15.5391      1.00000
    136     -15.5170      1.00000
    137     -15.5107      1.00000
    138     -15.5073      1.00000
    139     -15.5005      1.00000
    140     -15.4928      1.00000
    141     -15.4860      1.00000
    142     -15.4734      1.00000
    143     -15.4692      1.00000
    144     -15.4633      1.00000
    145     -15.4564      1.00000
    146     -15.4514      1.00000
    147     -15.4441      1.00000
    148     -15.4381      1.00000
    149     -15.4283      1.00000
    150     -15.4229      1.00000
    151     -15.4145      1.00000
    152     -15.4087      1.00000
    153     -15.3977      1.00000
    154     -15.3910      1.00000
    155     -15.3869      1.00000
    156     -15.3782      1.00000
    157     -15.3715      1.00000
    158     -15.3625      1.00000
    159     -15.3522      1.00000
    160     -15.3497      1.00000
    161     -15.3423      1.00000
    162     -15.3373      1.00000
    163     -15.3268      1.00000
    164     -15.3185      1.00000
    165     -15.3089      1.00000
    166     -15.3001      1.00000
    167     -15.2972      1.00000
    168     -15.2691      1.00000
    169     -15.2524      1.00000
    170     -15.2261      1.00000
    171     -15.1163      1.00000
    172      -6.1248      1.00000
    173      -5.9589      1.00000
    174      -5.9366      1.00000
    175      -5.9014      1.00000
    176      -5.7768      1.00000
    177      -5.7444      1.00000
    178      -5.6001      1.00000
    179      -5.5823      1.00000
    180      -5.5442      1.00000
    181      -5.5218      1.00000
    182      -5.5014      1.00000
    183      -5.4831      1.00000
    184      -5.4635      1.00000
    185      -5.4196      1.00000
    186      -5.4068      1.00000
    187      -5.3856      1.00000
    188      -5.3714      1.00000
    189      -5.3537      1.00000
    190      -5.3213      1.00000
    191      -5.3073      1.00000
    192      -5.2808      1.00000
    193      -5.2287      1.00000
    194      -5.1890      1.00000
    195      -5.1308      1.00000
    196      -4.2109      1.00000
    197      -4.0204      1.00000
    198      -3.9905      1.00000
    199      -3.9565      1.00000
    200      -3.9182      1.00000
    201      -3.8133      1.00000
    202      -3.7958      1.00000
    203      -3.7651      1.00000
    204      -3.7369      1.00000
    205      -3.6816      1.00000
    206      -3.6395      1.00000
    207      -3.6216      1.00000
    208      -3.6115      1.00000
    209      -3.5862      1.00000
    210      -3.5610      1.00000
    211      -3.5467      1.00000
    212      -3.5342      1.00000
    213      -3.5291      1.00000
    214      -3.5134      1.00000
    215      -3.5029      1.00000
    216      -3.4857      1.00000
    217      -3.4621      1.00000
    218      -3.4252      1.00000
    219      -3.3984      1.00000
    220      -3.3562      1.00000
    221      -3.3391      1.00000
    222      -3.3214      1.00000
    223      -3.3135      1.00000
    224      -3.3071      1.00000
    225      -3.2954      1.00000
    226      -3.2791      1.00000
    227      -3.2728      1.00000
    228      -3.2523      1.00000
    229      -3.2399      1.00000
    230      -3.2250      1.00000
    231      -3.1842      1.00000
    232      -3.1692      1.00000
    233      -3.1487      1.00000
    234      -3.1379      1.00000
    235      -3.1198      1.00000
    236      -3.1036      1.00000
    237      -3.0614      1.00000
    238      -3.0452      1.00000
    239      -3.0363      1.00000
    240      -3.0246      1.00000
    241      -2.9990      1.00000
    242      -2.9672      1.00000
    243      -2.9538      1.00000
    244      -2.9458      1.00000
    245      -2.9425      1.00000
    246      -2.9184      1.00000
    247      -2.9129      1.00000
    248      -2.9060      1.00000
    249      -2.8858      1.00000
    250      -2.8691      1.00000
    251      -2.8614      1.00000
    252      -2.8479      1.00000
    253      -2.8290      1.00000
    254      -2.8240      1.00000
    255      -2.8026      1.00000
    256      -2.7853      1.00000
    257      -2.7634      1.00000
    258      -2.7581      1.00000
    259      -2.7004      1.00000
    260      -2.6932      1.00000
    261      -2.6822      1.00000
    262      -2.6807      1.00000
    263      -2.6499      1.00000
    264      -2.6251      1.00000
    265      -2.5857      1.00000
    266      -2.4640      1.00000
    267      -2.3581      1.00000
    268      -2.0157      1.00000
    269      -1.9873      1.00000
    270      -1.9467      1.00000
    271      -1.9254      1.00000
    272      -1.8281      1.00000
    273      -1.8030      1.00000
    274      -1.7930      1.00000
    275      -1.7760      1.00000
    276      -1.7473      1.00000
    277      -1.7312      1.00000
    278      -1.7226      1.00000
    279      -1.7094      1.00000
    280      -1.6884      1.00000
    281      -1.6013      1.00000
    282      -1.5829      1.00000
    283      -1.5480      1.00000
    284      -1.5170      1.00000
    285      -1.4816      1.00000
    286      -1.4378      1.00000
    287      -1.3629      1.00000
    288      -1.3231      1.00000
    289      -1.3062      1.00000
    290      -1.2605      1.00000
    291      -1.2249      1.00000
    292      -1.1962      1.00000
    293      -1.1768      1.00000
    294      -1.1537      1.00000
    295      -1.1477      1.00000
    296      -1.1278      1.00000
    297      -1.1267      1.00000
    298      -1.1058      1.00000
    299      -1.0501      1.00000
    300      -1.0054      1.00000
    301      -0.9787      1.00000
    302      -0.9469      1.00000
    303      -0.8869      1.00000
    304      -0.8627      1.00000
    305      -0.8476      1.00000
    306      -0.8457      1.00000
    307      -0.8329      1.00000
    308      -0.8242      1.00000
    309      -0.8140      1.00000
    310      -0.8003      1.00000
    311      -0.7816      1.00000
    312      -0.7531      1.00000
    313      -0.7408      1.00000
    314      -0.7279      1.00000
    315      -0.7222      1.00000
    316      -0.6976      1.00000
    317      -0.6937      1.00000
    318      -0.6744      1.00000
    319      -0.6606      1.00000
    320      -0.6360      1.00000
    321      -0.6247      1.00000
    322      -0.6046      1.00000
    323      -0.5990      1.00000
    324      -0.5763      1.00000
    325      -0.5639      1.00000
    326      -0.5285      1.00000
    327      -0.4819      1.00000
    328      -0.4576      1.00000
    329      -0.4404      1.00000
    330      -0.4264      1.00000
    331      -0.4133      1.00000
    332      -0.3919      1.00000
    333      -0.3783      1.00000
    334      -0.3642      1.00000
    335      -0.3424      1.00000
    336      -0.2593      1.00000
    337      -0.2162      1.00000
    338      -0.1841      1.00000
    339      -0.1479      1.00000
    340      -0.1350      1.00000
    341      -0.1297      1.00000
    342      -0.1100      1.00000
    343      -0.0987      1.00000
    344      -0.0889      1.00000
    345      -0.0655      1.00000
    346      -0.0497      1.00000
    347      -0.0257      1.00000
    348       0.0003      1.00000
    349       0.0227      1.00000
    350       0.0478      1.00000
    351       0.0668      1.00000
    352       0.0875      1.00000
    353       0.1028      1.00000
    354       0.1149      1.00000
    355       0.1432      1.00000
    356       0.1529      1.00000
    357       0.1757      1.00000
    358       0.2091      1.00000
    359       0.2287      1.00000
    360       0.2485      1.00000
    361       0.2598      1.00000
    362       0.2680      1.00000
    363       0.2774      1.00000
    364       0.3024      1.00000
    365       0.3130      1.00000
    366       0.3348      1.00000
    367       0.3395      1.00000
    368       0.3497      1.00000
    369       0.3580      1.00000
    370       0.3690      1.00000
    371       0.3766      1.00000
    372       0.3836      1.00000
    373       0.3969      1.00000
    374       0.4047      1.00000
    375       0.4390      1.00000
    376       0.4593      1.00000
    377       0.4703      1.00000
    378       0.4828      1.00000
    379       0.4978      1.00000
    380       0.5064      1.00000
    381       0.5295      1.00000
    382       0.5487      1.00000
    383       0.5588      1.00000
    384       0.5667      1.00000
    385       0.5782      1.00000
    386       0.5988      1.00000
    387       0.6101      1.00000
    388       0.6199      1.00000
    389       0.6521      1.00000
    390       0.6711      1.00000
    391       0.6926      1.00000
    392       0.7135      1.00000
    393       0.7548      1.00000
    394       0.7823      1.00000
    395       0.7942      1.00000
    396       0.8105      1.00000
    397       0.8153      1.00000
    398       0.8405      1.00000
    399       0.8451      1.00000
    400       0.8686      1.00000
    401       0.8704      1.00000
    402       0.8940      1.00000
    403       0.9145      1.00000
    404       0.9264      1.00000
    405       0.9319      1.00000
    406       0.9410      1.00000
    407       0.9497      1.00000
    408       1.0038      1.00000
    409       1.0446      1.00000
    410       1.0718      1.00000
    411       1.1060      1.00000
    412       1.1147      1.00000
    413       1.1390      1.00000
    414       1.1573      1.00000
    415       1.1784      1.00000
    416       1.2007      1.00000
    417       1.2029      1.00000
    418       1.2252      1.00000
    419       1.2344      1.00000
    420       1.2547      1.00000
    421       1.2626      1.00000
    422       1.2829      1.00000
    423       1.3069      1.00000
    424       1.3221      1.00000
    425       1.3389      1.00000
    426       1.3445      1.00000
    427       1.3670      1.00000
    428       1.3797      1.00000
    429       1.3866      1.00000
    430       1.4046      1.00000
    431       1.4138      1.00000
    432       1.4257      1.00000
    433       1.4502      1.00000
    434       1.4622      1.00000
    435       1.4703      1.00000
    436       1.4790      1.00000
    437       1.4882      1.00000
    438       1.4950      1.00000
    439       1.5176      1.00000
    440       1.5361      1.00000
    441       1.5534      1.00000
    442       1.5620      1.00000
    443       1.6062      1.00000
    444       1.6692      1.00000
    445       1.6988      1.00000
    446       1.7341      1.00000
    447       1.7537      1.00000
    448       1.7561      1.00000
    449       1.7774      1.00000
    450       1.7818      1.00000
    451       1.8154      1.00000
    452       1.8369      1.00000
    453       1.8458      1.00000
    454       1.8703      1.00000
    455       1.8862      1.00000
    456       1.9323      1.00000
    457       1.9827      1.00000
    458       1.9940      1.00000
    459       2.0666      1.00000
    460       3.2555      1.00000
    461       4.3168      0.00000
    462       4.3649      0.00000
    463       4.3903      0.00000
    464       4.3982      0.00000
    465       4.4011      0.00000
    466       4.4109      0.00000
    467       4.4186      0.00000
    468       4.4396      0.00000
    469       4.4447      0.00000
    470       4.4589      0.00000
    471       4.4660      0.00000
    472       4.4693      0.00000
    473       4.4803      0.00000
    474       4.4890      0.00000
    475       4.5040      0.00000
    476       4.5150      0.00000
    477       4.5188      0.00000
    478       4.5302      0.00000
    479       4.5331      0.00000
    480       4.5460      0.00000
    481       4.5562      0.00000
    482       4.5670      0.00000
    483       4.5735      0.00000
    484       4.5774      0.00000
    485       4.5917      0.00000
    486       4.5952      0.00000
    487       4.6027      0.00000
    488       4.6093      0.00000
    489       4.6185      0.00000
    490       4.6286      0.00000
    491       4.6362      0.00000
    492       4.6416      0.00000
    493       4.6528      0.00000
    494       4.6628      0.00000
    495       4.6669      0.00000
    496       4.6750      0.00000
    497       4.6786      0.00000
    498       4.6884      0.00000
    499       4.6899      0.00000
    500       4.6949      0.00000
    501       4.7038      0.00000
    502       4.7096      0.00000
    503       4.7136      0.00000
    504       4.7224      0.00000
    505       4.7291      0.00000
    506       4.7328      0.00000
    507       4.7406      0.00000
    508       4.7470      0.00000
    509       4.7543      0.00000
    510       4.7583      0.00000
    511       4.7666      0.00000
    512       4.7702      0.00000
    513       4.7797      0.00000
    514       4.8050      0.00000
    515       4.8078      0.00000
    516       4.8217      0.00000
    517       4.8303      0.00000
    518       4.8391      0.00000
    519       4.8465      0.00000
    520       4.8589      0.00000
    521       4.8644      0.00000
    522       4.8723      0.00000
    523       4.8863      0.00000
    524       4.8929      0.00000
    525       4.9053      0.00000
    526       4.9219      0.00000
    527       4.9274      0.00000
    528       4.9361      0.00000
    529       4.9431      0.00000
    530       4.9622      0.00000
    531       4.9699      0.00000
    532       4.9891      0.00000
    533       5.0006      0.00000
    534       5.0121      0.00000
    535       5.0271      0.00000
    536       5.0420      0.00000
    537       5.0470      0.00000
    538       5.0558      0.00000
    539       5.0664      0.00000
    540       5.0710      0.00000
    541       5.0874      0.00000
    542       5.1020      0.00000
    543       5.1403      0.00000
    544       5.1500      0.00000
    545       5.1796      0.00000
    546       5.1909      0.00000
    547       5.2049      0.00000
    548       5.2122      0.00000
    549       5.2465      0.00000
    550       5.2999      0.00000
    551       5.3359      0.00000
    552       5.3833      0.00000
    553       5.3910      0.00000
    554       5.4265      0.00000
    555       5.4464      0.00000
    556       5.4605      0.00000
    557       5.4846      0.00000
    558       5.5055      0.00000
    559       5.5335      0.00000
    560       5.5780      0.00000
    561       5.6011      0.00000
    562       5.6117      0.00000
    563       5.6266      0.00000
    564       5.6436      0.00000
    565       5.6542      0.00000
    566       5.6664      0.00000
    567       5.6766      0.00000
    568       5.6868      0.00000
    569       5.6941      0.00000
    570       5.7068      0.00000
    571       5.7189      0.00000
    572       5.7376      0.00000
    573       5.7482      0.00000
    574       5.7667      0.00000
    575       5.7845      0.00000
    576       7.8230      0.00000
    577       7.9787      0.00000
    578       8.2248      0.00000
    579       8.2517      0.00000
    580       8.9758      0.00000
    581       9.0355      0.00000
    582       9.0633      0.00000
    583       9.2819      0.00000
    584       9.7007      0.00000
    585       9.7323      0.00000
    586      10.2690      0.00000
    587      10.3167      0.00000
    588      10.4454      0.00000
    589      10.4709      0.00000
    590      10.5182      0.00000
    591      10.5717      0.00000
    592      10.6634      0.00000
    593      10.6697      0.00000
    594      10.7005      0.00000
    595      10.7134      0.00000
    596      10.7349      0.00000
    597      10.7428      0.00000
    598      10.7674      0.00000
    599      10.7852      0.00000
    600      10.9077      0.00000
    601      10.9558      0.00000
    602      10.9992      0.00000
    603      11.0082      0.00000
    604      11.0250      0.00000
    605      11.0486      0.00000
    606      11.0709      0.00000
    607      11.1013      0.00000
    608      11.1253      0.00000
    609      11.1623      0.00000
    610      11.1934      0.00000
    611      11.2181      0.00000
    612      11.2450      0.00000
    613      11.2662      0.00000
    614      11.2789      0.00000
    615      11.2997      0.00000
    616      11.3595      0.00000
    617      11.3990      0.00000
    618      11.4239      0.00000
    619      11.4663      0.00000
    620      11.4915      0.00000
    621      11.5004      0.00000
    622      11.5296      0.00000
    623      11.5465      0.00000
    624      11.5666      0.00000
    625      11.5803      0.00000
    626      11.6255      0.00000
    627      11.6358      0.00000
    628      11.6702      0.00000
    629      11.7138      0.00000
    630      11.7476      0.00000
    631      11.7873      0.00000
    632      11.8293      0.00000
    633      11.8467      0.00000
    634      11.8627      0.00000
    635      11.8679      0.00000
    636      11.8881      0.00000
    637      11.9764      0.00000
    638      12.0000      0.00000
    639      12.0117      0.00000
    640      12.0410      0.00000
    641      12.0546      0.00000
    642      12.0795      0.00000
    643      12.0957      0.00000
    644      12.1155      0.00000
    645      12.1674      0.00000
    646      12.1796      0.00000
    647      12.2043      0.00000
    648      12.2184      0.00000
    649      12.2477      0.00000
    650      12.2541      0.00000
    651      12.2710      0.00000
    652      12.2833      0.00000
    653      12.3004      0.00000
    654      12.3194      0.00000
    655      12.3715      0.00000
    656      12.3957      0.00000
    657      12.4164      0.00000
    658      12.4529      0.00000
    659      12.4688      0.00000
    660      12.4789      0.00000
    661      12.4974      0.00000
    662      12.5184      0.00000
    663      12.5330      0.00000
    664      12.5807      0.00000
    665      12.6458      0.00000
    666      12.6677      0.00000
    667      12.7225      0.00000
    668      12.7941      0.00000
    669      12.8193      0.00000
    670      12.8816      0.00000
    671      12.8916      0.00000
    672      12.9189      0.00000
    673      12.9389      0.00000
    674      12.9561      0.00000
    675      12.9785      0.00000
    676      12.9990      0.00000
    677      13.0511      0.00000
    678      13.0751      0.00000
    679      13.2329      0.00000
    680      13.2559      0.00000
    681      13.2778      0.00000
    682      13.3173      0.00000
    683      13.3434      0.00000
    684      13.3862      0.00000
    685      13.3913      0.00000
    686      13.4113      0.00000
    687      13.4299      0.00000
    688      13.4582      0.00000
    689      13.4792      0.00000
    690      13.4946      0.00000
    691      13.5309      0.00000
    692      13.5470      0.00000
    693      13.6342      0.00000
    694      13.6745      0.00000
    695      13.7219      0.00000
    696      13.7901      0.00000

 k-point     4 :       0.3333    0.0000    0.3333
  band No.  band energies     occupation 
      1     -50.6278      1.00000
      2     -50.5494      1.00000
      3     -50.5308      1.00000
      4     -50.5040      1.00000
      5     -50.4968      1.00000
      6     -50.4937      1.00000
      7     -50.4929      1.00000
      8     -50.4846      1.00000
      9     -50.4809      1.00000
     10     -50.4794      1.00000
     11     -50.4758      1.00000
     12     -50.4691      1.00000
     13     -50.4615      1.00000
     14     -50.4612      1.00000
     15     -50.4531      1.00000
     16     -50.4489      1.00000
     17     -50.4466      1.00000
     18     -50.4436      1.00000
     19     -50.4430      1.00000
     20     -50.4356      1.00000
     21     -50.4335      1.00000
     22     -50.4295      1.00000
     23     -50.4204      1.00000
     24     -50.4110      1.00000
     25     -50.4026      1.00000
     26     -50.3937      1.00000
     27     -50.3909      1.00000
     28     -50.3904      1.00000
     29     -50.3889      1.00000
     30     -50.3852      1.00000
     31     -50.3824      1.00000
     32     -50.3770      1.00000
     33     -50.3764      1.00000
     34     -50.3729      1.00000
     35     -50.3693      1.00000
     36     -50.3674      1.00000
     37     -50.3665      1.00000
     38     -50.3570      1.00000
     39     -50.3545      1.00000
     40     -50.3536      1.00000
     41     -50.3473      1.00000
     42     -50.3437      1.00000
     43     -50.3435      1.00000
     44     -50.3403      1.00000
     45     -50.3335      1.00000
     46     -50.3271      1.00000
     47     -50.3266      1.00000
     48     -50.3199      1.00000
     49     -50.3150      1.00000
     50     -50.3119      1.00000
     51     -50.3109      1.00000
     52     -50.3072      1.00000
     53     -50.3025      1.00000
     54     -50.2909      1.00000
     55     -50.2866      1.00000
     56     -50.2833      1.00000
     57     -50.2808      1.00000
     58     -50.2731      1.00000
     59     -50.2712      1.00000
     60     -50.2682      1.00000
     61     -50.2673      1.00000
     62     -50.2664      1.00000
     63     -50.2622      1.00000
     64     -50.2599      1.00000
     65     -50.2287      1.00000
     66     -50.2242      1.00000
     67     -50.2177      1.00000
     68     -50.1982      1.00000
     69     -50.1785      1.00000
     70     -46.9640      1.00000
     71     -46.4332      1.00000
     72     -46.2231      1.00000
     73     -18.7855      1.00000
     74     -18.5200      1.00000
     75     -18.4834      1.00000
     76     -18.3776      1.00000
     77     -18.3062      1.00000
     78     -18.2820      1.00000
     79     -18.2435      1.00000
     80     -18.2307      1.00000
     81     -18.2078      1.00000
     82     -18.1841      1.00000
     83     -18.1720      1.00000
     84     -18.1554      1.00000
     85     -18.1282      1.00000
     86     -18.1130      1.00000
     87     -18.0857      1.00000
     88     -18.0645      1.00000
     89     -18.0489      1.00000
     90     -18.0230      1.00000
     91     -18.0209      1.00000
     92     -17.9971      1.00000
     93     -17.9877      1.00000
     94     -17.9766      1.00000
     95     -17.9652      1.00000
     96     -17.9417      1.00000
     97     -17.9087      1.00000
     98     -17.8960      1.00000
     99     -17.8521      1.00000
    100     -16.0288      1.00000
    101     -15.9724      1.00000
    102     -15.9393      1.00000
    103     -15.9301      1.00000
    104     -15.9134      1.00000
    105     -15.8940      1.00000
    106     -15.8808      1.00000
    107     -15.8759      1.00000
    108     -15.8604      1.00000
    109     -15.8458      1.00000
    110     -15.8314      1.00000
    111     -15.8210      1.00000
    112     -15.8109      1.00000
    113     -15.8070      1.00000
    114     -15.8014      1.00000
    115     -15.7898      1.00000
    116     -15.7801      1.00000
    117     -15.7696      1.00000
    118     -15.7581      1.00000
    119     -15.7489      1.00000
    120     -15.7397      1.00000
    121     -15.7211      1.00000
    122     -15.6999      1.00000
    123     -15.6942      1.00000
    124     -15.6856      1.00000
    125     -15.6601      1.00000
    126     -15.6307      1.00000
    127     -15.6093      1.00000
    128     -15.5989      1.00000
    129     -15.5924      1.00000
    130     -15.5861      1.00000
    131     -15.5785      1.00000
    132     -15.5678      1.00000
    133     -15.5543      1.00000
    134     -15.5463      1.00000
    135     -15.5324      1.00000
    136     -15.5273      1.00000
    137     -15.5252      1.00000
    138     -15.5176      1.00000
    139     -15.5123      1.00000
    140     -15.5058      1.00000
    141     -15.5026      1.00000
    142     -15.4984      1.00000
    143     -15.4917      1.00000
    144     -15.4761      1.00000
    145     -15.4690      1.00000
    146     -15.4602      1.00000
    147     -15.4404      1.00000
    148     -15.4333      1.00000
    149     -15.4307      1.00000
    150     -15.4146      1.00000
    151     -15.4084      1.00000
    152     -15.4032      1.00000
    153     -15.3941      1.00000
    154     -15.3842      1.00000
    155     -15.3767      1.00000
    156     -15.3683      1.00000
    157     -15.3655      1.00000
    158     -15.3569      1.00000
    159     -15.3542      1.00000
    160     -15.3458      1.00000
    161     -15.3418      1.00000
    162     -15.3323      1.00000
    163     -15.3303      1.00000
    164     -15.3243      1.00000
    165     -15.3123      1.00000
    166     -15.3032      1.00000
    167     -15.2891      1.00000
    168     -15.2685      1.00000
    169     -15.2573      1.00000
    170     -15.2282      1.00000
    171     -15.1165      1.00000
    172      -6.0226      1.00000
    173      -5.8794      1.00000
    174      -5.8392      1.00000
    175      -5.8097      1.00000
    176      -5.7494      1.00000
    177      -5.7174      1.00000
    178      -5.6830      1.00000
    179      -5.6563      1.00000
    180      -5.5771      1.00000
    181      -5.5564      1.00000
    182      -5.5417      1.00000
    183      -5.5262      1.00000
    184      -5.4894      1.00000
    185      -5.4572      1.00000
    186      -5.4369      1.00000
    187      -5.4091      1.00000
    188      -5.3777      1.00000
    189      -5.3495      1.00000
    190      -5.3397      1.00000
    191      -5.3070      1.00000
    192      -5.2776      1.00000
    193      -5.2675      1.00000
    194      -5.2254      1.00000
    195      -5.1326      1.00000
    196      -4.1816      1.00000
    197      -4.0347      1.00000
    198      -3.9625      1.00000
    199      -3.9513      1.00000
    200      -3.9135      1.00000
    201      -3.8441      1.00000
    202      -3.8292      1.00000
    203      -3.7895      1.00000
    204      -3.7385      1.00000
    205      -3.7163      1.00000
    206      -3.6491      1.00000
    207      -3.6205      1.00000
    208      -3.5951      1.00000
    209      -3.5643      1.00000
    210      -3.5144      1.00000
    211      -3.5072      1.00000
    212      -3.4904      1.00000
    213      -3.4851      1.00000
    214      -3.4675      1.00000
    215      -3.4611      1.00000
    216      -3.4421      1.00000
    217      -3.4348      1.00000
    218      -3.4039      1.00000
    219      -3.3922      1.00000
    220      -3.3570      1.00000
    221      -3.3387      1.00000
    222      -3.3094      1.00000
    223      -3.2983      1.00000
    224      -3.2862      1.00000
    225      -3.2709      1.00000
    226      -3.2545      1.00000
    227      -3.2396      1.00000
    228      -3.2340      1.00000
    229      -3.2078      1.00000
    230      -3.1954      1.00000
    231      -3.1862      1.00000
    232      -3.1773      1.00000
    233      -3.1617      1.00000
    234      -3.1475      1.00000
    235      -3.1411      1.00000
    236      -3.1397      1.00000
    237      -3.1246      1.00000
    238      -3.1022      1.00000
    239      -3.0848      1.00000
    240      -3.0753      1.00000
    241      -3.0420      1.00000
    242      -3.0367      1.00000
    243      -3.0304      1.00000
    244      -2.9921      1.00000
    245      -2.9793      1.00000
    246      -2.9710      1.00000
    247      -2.9544      1.00000
    248      -2.9346      1.00000
    249      -2.9046      1.00000
    250      -2.8764      1.00000
    251      -2.8659      1.00000
    252      -2.8361      1.00000
    253      -2.8102      1.00000
    254      -2.8011      1.00000
    255      -2.7929      1.00000
    256      -2.7799      1.00000
    257      -2.7612      1.00000
    258      -2.7380      1.00000
    259      -2.7322      1.00000
    260      -2.6966      1.00000
    261      -2.6885      1.00000
    262      -2.6795      1.00000
    263      -2.6645      1.00000
    264      -2.6482      1.00000
    265      -2.5964      1.00000
    266      -2.5011      1.00000
    267      -2.4097      1.00000
    268      -1.9825      1.00000
    269      -1.9469      1.00000
    270      -1.9114      1.00000
    271      -1.8844      1.00000
    272      -1.8271      1.00000
    273      -1.8138      1.00000
    274      -1.8089      1.00000
    275      -1.7974      1.00000
    276      -1.7826      1.00000
    277      -1.7461      1.00000
    278      -1.7280      1.00000
    279      -1.6836      1.00000
    280      -1.6681      1.00000
    281      -1.6274      1.00000
    282      -1.5541      1.00000
    283      -1.5301      1.00000
    284      -1.4953      1.00000
    285      -1.4561      1.00000
    286      -1.3990      1.00000
    287      -1.3538      1.00000
    288      -1.3208      1.00000
    289      -1.2595      1.00000
    290      -1.1898      1.00000
    291      -1.1718      1.00000
    292      -1.1483      1.00000
    293      -1.1324      1.00000
    294      -1.1036      1.00000
    295      -1.0594      1.00000
    296      -1.0279      1.00000
    297      -1.0000      1.00000
    298      -0.9891      1.00000
    299      -0.9654      1.00000
    300      -0.9488      1.00000
    301      -0.9347      1.00000
    302      -0.9170      1.00000
    303      -0.9019      1.00000
    304      -0.8916      1.00000
    305      -0.8816      1.00000
    306      -0.8485      1.00000
    307      -0.8406      1.00000
    308      -0.8019      1.00000
    309      -0.7897      1.00000
    310      -0.7751      1.00000
    311      -0.7651      1.00000
    312      -0.7340      1.00000
    313      -0.7237      1.00000
    314      -0.7113      1.00000
    315      -0.7035      1.00000
    316      -0.6902      1.00000
    317      -0.6793      1.00000
    318      -0.6583      1.00000
    319      -0.6272      1.00000
    320      -0.6162      1.00000
    321      -0.6126      1.00000
    322      -0.5919      1.00000
    323      -0.5787      1.00000
    324      -0.5657      1.00000
    325      -0.5573      1.00000
    326      -0.5238      1.00000
    327      -0.5106      1.00000
    328      -0.4911      1.00000
    329      -0.4703      1.00000
    330      -0.4591      1.00000
    331      -0.4386      1.00000
    332      -0.4173      1.00000
    333      -0.4046      1.00000
    334      -0.3852      1.00000
    335      -0.3630      1.00000
    336      -0.3491      1.00000
    337      -0.2440      1.00000
    338      -0.2167      1.00000
    339      -0.1990      1.00000
    340      -0.1822      1.00000
    341      -0.1723      1.00000
    342      -0.1448      1.00000
    343      -0.1038      1.00000
    344      -0.0659      1.00000
    345      -0.0537      1.00000
    346      -0.0441      1.00000
    347      -0.0309      1.00000
    348      -0.0109      1.00000
    349      -0.0013      1.00000
    350       0.0058      1.00000
    351       0.0162      1.00000
    352       0.0309      1.00000
    353       0.0496      1.00000
    354       0.0649      1.00000
    355       0.0834      1.00000
    356       0.0916      1.00000
    357       0.1025      1.00000
    358       0.1247      1.00000
    359       0.1363      1.00000
    360       0.1408      1.00000
    361       0.1576      1.00000
    362       0.1744      1.00000
    363       0.2172      1.00000
    364       0.2585      1.00000
    365       0.2764      1.00000
    366       0.2866      1.00000
    367       0.3026      1.00000
    368       0.3168      1.00000
    369       0.3276      1.00000
    370       0.3384      1.00000
    371       0.3434      1.00000
    372       0.3485      1.00000
    373       0.3641      1.00000
    374       0.3875      1.00000
    375       0.4054      1.00000
    376       0.4178      1.00000
    377       0.4362      1.00000
    378       0.4505      1.00000
    379       0.4642      1.00000
    380       0.4846      1.00000
    381       0.5105      1.00000
    382       0.5153      1.00000
    383       0.5395      1.00000
    384       0.5582      1.00000
    385       0.5666      1.00000
    386       0.6218      1.00000
    387       0.6375      1.00000
    388       0.7022      1.00000
    389       0.7313      1.00000
    390       0.7632      1.00000
    391       0.7994      1.00000
    392       0.8047      1.00000
    393       0.8101      1.00000
    394       0.8420      1.00000
    395       0.8527      1.00000
    396       0.8646      1.00000
    397       0.8742      1.00000
    398       0.8903      1.00000
    399       0.9114      1.00000
    400       0.9345      1.00000
    401       0.9400      1.00000
    402       0.9698      1.00000
    403       0.9801      1.00000
    404       1.0012      1.00000
    405       1.0122      1.00000
    406       1.0352      1.00000
    407       1.0360      1.00000
    408       1.0790      1.00000
    409       1.0826      1.00000
    410       1.1071      1.00000
    411       1.1287      1.00000
    412       1.1417      1.00000
    413       1.1537      1.00000
    414       1.1906      1.00000
    415       1.2006      1.00000
    416       1.2107      1.00000
    417       1.2200      1.00000
    418       1.2346      1.00000
    419       1.2385      1.00000
    420       1.2449      1.00000
    421       1.2661      1.00000
    422       1.2806      1.00000
    423       1.3013      1.00000
    424       1.3197      1.00000
    425       1.3320      1.00000
    426       1.3448      1.00000
    427       1.3643      1.00000
    428       1.3756      1.00000
    429       1.3878      1.00000
    430       1.3925      1.00000
    431       1.4003      1.00000
    432       1.4164      1.00000
    433       1.4294      1.00000
    434       1.4357      1.00000
    435       1.4418      1.00000
    436       1.4513      1.00000
    437       1.4711      1.00000
    438       1.5013      1.00000
    439       1.5225      1.00000
    440       1.5333      1.00000
    441       1.5547      1.00000
    442       1.5783      1.00000
    443       1.6028      1.00000
    444       1.6290      1.00000
    445       1.6358      1.00000
    446       1.6606      1.00000
    447       1.6705      1.00000
    448       1.6766      1.00000
    449       1.6981      1.00000
    450       1.7397      1.00000
    451       1.7576      1.00000
    452       1.8031      1.00000
    453       1.8142      1.00000
    454       1.8480      1.00000
    455       1.8797      1.00000
    456       1.9582      1.00000
    457       2.0155      1.00000
    458       2.0248      1.00000
    459       2.0999      1.00000
    460       3.2531      1.00000
    461       4.3192      0.00000
    462       4.3674      0.00000
    463       4.3957      0.00000
    464       4.4032      0.00000
    465       4.4106      0.00000
    466       4.4168      0.00000
    467       4.4279      0.00000
    468       4.4372      0.00000
    469       4.4568      0.00000
    470       4.4619      0.00000
    471       4.4697      0.00000
    472       4.4780      0.00000
    473       4.4864      0.00000
    474       4.4877      0.00000
    475       4.4917      0.00000
    476       4.5060      0.00000
    477       4.5082      0.00000
    478       4.5168      0.00000
    479       4.5252      0.00000
    480       4.5441      0.00000
    481       4.5561      0.00000
    482       4.5684      0.00000
    483       4.5727      0.00000
    484       4.5814      0.00000
    485       4.5927      0.00000
    486       4.6072      0.00000
    487       4.6103      0.00000
    488       4.6203      0.00000
    489       4.6250      0.00000
    490       4.6313      0.00000
    491       4.6345      0.00000
    492       4.6427      0.00000
    493       4.6518      0.00000
    494       4.6601      0.00000
    495       4.6615      0.00000
    496       4.6722      0.00000
    497       4.6811      0.00000
    498       4.6853      0.00000
    499       4.6945      0.00000
    500       4.7008      0.00000
    501       4.7036      0.00000
    502       4.7099      0.00000
    503       4.7187      0.00000
    504       4.7269      0.00000
    505       4.7328      0.00000
    506       4.7386      0.00000
    507       4.7533      0.00000
    508       4.7593      0.00000
    509       4.7638      0.00000
    510       4.7718      0.00000
    511       4.7832      0.00000
    512       4.7892      0.00000
    513       4.7948      0.00000
    514       4.8051      0.00000
    515       4.8106      0.00000
    516       4.8213      0.00000
    517       4.8308      0.00000
    518       4.8358      0.00000
    519       4.8382      0.00000
    520       4.8469      0.00000
    521       4.8533      0.00000
    522       4.8637      0.00000
    523       4.8782      0.00000
    524       4.8824      0.00000
    525       4.9041      0.00000
    526       4.9121      0.00000
    527       4.9142      0.00000
    528       4.9311      0.00000
    529       4.9393      0.00000
    530       4.9489      0.00000
    531       4.9530      0.00000
    532       4.9660      0.00000
    533       4.9753      0.00000
    534       4.9885      0.00000
    535       4.9930      0.00000
    536       5.0089      0.00000
    537       5.0219      0.00000
    538       5.0361      0.00000
    539       5.0637      0.00000
    540       5.0823      0.00000
    541       5.0920      0.00000
    542       5.0996      0.00000
    543       5.1366      0.00000
    544       5.1497      0.00000
    545       5.1650      0.00000
    546       5.1959      0.00000
    547       5.2152      0.00000
    548       5.2222      0.00000
    549       5.2389      0.00000
    550       5.2819      0.00000
    551       5.2992      0.00000
    552       5.3393      0.00000
    553       5.4409      0.00000
    554       5.4632      0.00000
    555       5.4858      0.00000
    556       5.4936      0.00000
    557       5.5063      0.00000
    558       5.5263      0.00000
    559       5.5474      0.00000
    560       5.5754      0.00000
    561       5.5879      0.00000
    562       5.6002      0.00000
    563       5.6080      0.00000
    564       5.6270      0.00000
    565       5.6352      0.00000
    566       5.6522      0.00000
    567       5.6648      0.00000
    568       5.6968      0.00000
    569       5.7052      0.00000
    570       5.7178      0.00000
    571       5.7300      0.00000
    572       5.7470      0.00000
    573       5.7611      0.00000
    574       5.7705      0.00000
    575       5.7864      0.00000
    576       7.8252      0.00000
    577       7.9774      0.00000
    578       8.2286      0.00000
    579       8.5792      0.00000
    580       9.1001      0.00000
    581       9.2429      0.00000
    582       9.2933      0.00000
    583       9.3394      0.00000
    584       9.5191      0.00000
    585       9.8653      0.00000
    586       9.9103      0.00000
    587       9.9390      0.00000
    588       9.9457      0.00000
    589       9.9974      0.00000
    590      10.3834      0.00000
    591      10.4118      0.00000
    592      10.5749      0.00000
    593      10.6258      0.00000
    594      10.7114      0.00000
    595      10.7813      0.00000
    596      10.8345      0.00000
    597      10.8443      0.00000
    598      10.8556      0.00000
    599      10.8783      0.00000
    600      10.9146      0.00000
    601      10.9434      0.00000
    602      10.9598      0.00000
    603      11.0182      0.00000
    604      11.1334      0.00000
    605      11.1837      0.00000
    606      11.2030      0.00000
    607      11.2326      0.00000
    608      11.2526      0.00000
    609      11.2642      0.00000
    610      11.2771      0.00000
    611      11.3038      0.00000
    612      11.3182      0.00000
    613      11.3388      0.00000
    614      11.3511      0.00000
    615      11.3761      0.00000
    616      11.3804      0.00000
    617      11.4073      0.00000
    618      11.4323      0.00000
    619      11.4573      0.00000
    620      11.4983      0.00000
    621      11.5103      0.00000
    622      11.5356      0.00000
    623      11.6036      0.00000
    624      11.6139      0.00000
    625      11.6392      0.00000
    626      11.6515      0.00000
    627      11.6672      0.00000
    628      11.6825      0.00000
    629      11.7186      0.00000
    630      11.7712      0.00000
    631      11.7908      0.00000
    632      11.8100      0.00000
    633      11.8216      0.00000
    634      11.8885      0.00000
    635      11.9067      0.00000
    636      11.9177      0.00000
    637      11.9311      0.00000
    638      11.9909      0.00000
    639      12.0186      0.00000
    640      12.0321      0.00000
    641      12.0425      0.00000
    642      12.0680      0.00000
    643      12.0808      0.00000
    644      12.1039      0.00000
    645      12.1152      0.00000
    646      12.1354      0.00000
    647      12.1648      0.00000
    648      12.1970      0.00000
    649      12.2125      0.00000
    650      12.2474      0.00000
    651      12.2634      0.00000
    652      12.2699      0.00000
    653      12.2954      0.00000
    654      12.3418      0.00000
    655      12.3500      0.00000
    656      12.3867      0.00000
    657      12.3977      0.00000
    658      12.4256      0.00000
    659      12.4565      0.00000
    660      12.4728      0.00000
    661      12.4811      0.00000
    662      12.5110      0.00000
    663      12.5966      0.00000
    664      12.6256      0.00000
    665      12.6524      0.00000
    666      12.6775      0.00000
    667      12.6983      0.00000
    668      12.7240      0.00000
    669      12.7858      0.00000
    670      12.8042      0.00000
    671      12.8351      0.00000
    672      12.8444      0.00000
    673      13.0019      0.00000
    674      13.0221      0.00000
    675      13.0778      0.00000
    676      13.1071      0.00000
    677      13.1125      0.00000
    678      13.1394      0.00000
    679      13.1651      0.00000
    680      13.1761      0.00000
    681      13.1916      0.00000
    682      13.2382      0.00000
    683      13.2770      0.00000
    684      13.3121      0.00000
    685      13.3247      0.00000
    686      13.4576      0.00000
    687      13.5106      0.00000
    688      13.5523      0.00000
    689      13.5732      0.00000
    690      13.5977      0.00000
    691      13.6161      0.00000
    692      13.6313      0.00000
    693      13.6502      0.00000
    694      13.6794      0.00000
    695      13.7146      0.00000
    696      13.8544      0.00000

 k-point     5 :      -0.3333    0.0000    0.3333
  band No.  band energies     occupation 
      1     -50.6278      1.00000
      2     -50.5494      1.00000
      3     -50.5308      1.00000
      4     -50.5040      1.00000
      5     -50.4968      1.00000
      6     -50.4937      1.00000
      7     -50.4929      1.00000
      8     -50.4846      1.00000
      9     -50.4809      1.00000
     10     -50.4794      1.00000
     11     -50.4758      1.00000
     12     -50.4691      1.00000
     13     -50.4615      1.00000
     14     -50.4612      1.00000
     15     -50.4531      1.00000
     16     -50.4489      1.00000
     17     -50.4466      1.00000
     18     -50.4436      1.00000
     19     -50.4430      1.00000
     20     -50.4356      1.00000
     21     -50.4335      1.00000
     22     -50.4295      1.00000
     23     -50.4204      1.00000
     24     -50.4110      1.00000
     25     -50.4026      1.00000
     26     -50.3937      1.00000
     27     -50.3909      1.00000
     28     -50.3904      1.00000
     29     -50.3889      1.00000
     30     -50.3852      1.00000
     31     -50.3824      1.00000
     32     -50.3770      1.00000
     33     -50.3764      1.00000
     34     -50.3729      1.00000
     35     -50.3693      1.00000
     36     -50.3674      1.00000
     37     -50.3665      1.00000
     38     -50.3570      1.00000
     39     -50.3545      1.00000
     40     -50.3536      1.00000
     41     -50.3473      1.00000
     42     -50.3437      1.00000
     43     -50.3435      1.00000
     44     -50.3403      1.00000
     45     -50.3335      1.00000
     46     -50.3271      1.00000
     47     -50.3266      1.00000
     48     -50.3199      1.00000
     49     -50.3150      1.00000
     50     -50.3119      1.00000
     51     -50.3109      1.00000
     52     -50.3073      1.00000
     53     -50.3025      1.00000
     54     -50.2909      1.00000
     55     -50.2866      1.00000
     56     -50.2833      1.00000
     57     -50.2808      1.00000
     58     -50.2731      1.00000
     59     -50.2712      1.00000
     60     -50.2682      1.00000
     61     -50.2673      1.00000
     62     -50.2664      1.00000
     63     -50.2622      1.00000
     64     -50.2599      1.00000
     65     -50.2287      1.00000
     66     -50.2242      1.00000
     67     -50.2177      1.00000
     68     -50.1982      1.00000
     69     -50.1785      1.00000
     70     -46.9640      1.00000
     71     -46.4331      1.00000
     72     -46.2231      1.00000
     73     -18.7859      1.00000
     74     -18.5191      1.00000
     75     -18.4834      1.00000
     76     -18.3686      1.00000
     77     -18.3205      1.00000
     78     -18.2771      1.00000
     79     -18.2502      1.00000
     80     -18.2306      1.00000
     81     -18.2061      1.00000
     82     -18.1825      1.00000
     83     -18.1714      1.00000
     84     -18.1544      1.00000
     85     -18.1277      1.00000
     86     -18.1143      1.00000
     87     -18.0857      1.00000
     88     -18.0587      1.00000
     89     -18.0500      1.00000
     90     -18.0242      1.00000
     91     -18.0205      1.00000
     92     -18.0004      1.00000
     93     -17.9886      1.00000
     94     -17.9721      1.00000
     95     -17.9605      1.00000
     96     -17.9460      1.00000
     97     -17.9110      1.00000
     98     -17.8959      1.00000
     99     -17.8519      1.00000
    100     -16.0242      1.00000
    101     -15.9734      1.00000
    102     -15.9505      1.00000
    103     -15.9366      1.00000
    104     -15.9082      1.00000
    105     -15.8902      1.00000
    106     -15.8824      1.00000
    107     -15.8679      1.00000
    108     -15.8567      1.00000
    109     -15.8482      1.00000
    110     -15.8314      1.00000
    111     -15.8223      1.00000
    112     -15.8150      1.00000
    113     -15.8041      1.00000
    114     -15.7969      1.00000
    115     -15.7860      1.00000
    116     -15.7769      1.00000
    117     -15.7683      1.00000
    118     -15.7648      1.00000
    119     -15.7556      1.00000
    120     -15.7420      1.00000
    121     -15.7218      1.00000
    122     -15.7015      1.00000
    123     -15.6939      1.00000
    124     -15.6784      1.00000
    125     -15.6573      1.00000
    126     -15.6365      1.00000
    127     -15.6142      1.00000
    128     -15.6029      1.00000
    129     -15.5903      1.00000
    130     -15.5783      1.00000
    131     -15.5719      1.00000
    132     -15.5658      1.00000
    133     -15.5618      1.00000
    134     -15.5537      1.00000
    135     -15.5346      1.00000
    136     -15.5300      1.00000
    137     -15.5188      1.00000
    138     -15.5133      1.00000
    139     -15.5109      1.00000
    140     -15.5046      1.00000
    141     -15.4994      1.00000
    142     -15.4949      1.00000
    143     -15.4916      1.00000
    144     -15.4842      1.00000
    145     -15.4683      1.00000
    146     -15.4644      1.00000
    147     -15.4432      1.00000
    148     -15.4332      1.00000
    149     -15.4227      1.00000
    150     -15.4172      1.00000
    151     -15.4081      1.00000
    152     -15.4040      1.00000
    153     -15.3934      1.00000
    154     -15.3847      1.00000
    155     -15.3774      1.00000
    156     -15.3734      1.00000
    157     -15.3631      1.00000
    158     -15.3542      1.00000
    159     -15.3504      1.00000
    160     -15.3459      1.00000
    161     -15.3432      1.00000
    162     -15.3348      1.00000
    163     -15.3301      1.00000
    164     -15.3212      1.00000
    165     -15.3149      1.00000
    166     -15.3024      1.00000
    167     -15.2893      1.00000
    168     -15.2693      1.00000
    169     -15.2569      1.00000
    170     -15.2281      1.00000
    171     -15.1165      1.00000
    172      -6.0210      1.00000
    173      -5.8862      1.00000
    174      -5.8360      1.00000
    175      -5.8055      1.00000
    176      -5.7529      1.00000
    177      -5.7149      1.00000
    178      -5.6820      1.00000
    179      -5.6653      1.00000
    180      -5.5764      1.00000
    181      -5.5597      1.00000
    182      -5.5270      1.00000
    183      -5.5203      1.00000
    184      -5.4853      1.00000
    185      -5.4702      1.00000
    186      -5.4423      1.00000
    187      -5.4062      1.00000
    188      -5.3747      1.00000
    189      -5.3532      1.00000
    190      -5.3398      1.00000
    191      -5.3002      1.00000
    192      -5.2832      1.00000
    193      -5.2735      1.00000
    194      -5.2154      1.00000
    195      -5.1376      1.00000
    196      -4.1797      1.00000
    197      -4.0318      1.00000
    198      -3.9614      1.00000
    199      -3.9483      1.00000
    200      -3.9146      1.00000
    201      -3.8464      1.00000
    202      -3.8350      1.00000
    203      -3.7825      1.00000
    204      -3.7366      1.00000
    205      -3.7283      1.00000
    206      -3.6528      1.00000
    207      -3.6139      1.00000
    208      -3.5951      1.00000
    209      -3.5697      1.00000
    210      -3.5308      1.00000
    211      -3.5016      1.00000
    212      -3.4973      1.00000
    213      -3.4753      1.00000
    214      -3.4632      1.00000
    215      -3.4534      1.00000
    216      -3.4382      1.00000
    217      -3.4261      1.00000
    218      -3.4062      1.00000
    219      -3.3954      1.00000
    220      -3.3445      1.00000
    221      -3.3335      1.00000
    222      -3.3119      1.00000
    223      -3.3019      1.00000
    224      -3.2890      1.00000
    225      -3.2689      1.00000
    226      -3.2610      1.00000
    227      -3.2379      1.00000
    228      -3.2287      1.00000
    229      -3.2198      1.00000
    230      -3.2001      1.00000
    231      -3.1894      1.00000
    232      -3.1716      1.00000
    233      -3.1646      1.00000
    234      -3.1544      1.00000
    235      -3.1406      1.00000
    236      -3.1322      1.00000
    237      -3.1208      1.00000
    238      -3.1077      1.00000
    239      -3.0924      1.00000
    240      -3.0723      1.00000
    241      -3.0531      1.00000
    242      -3.0318      1.00000
    243      -3.0188      1.00000
    244      -2.9969      1.00000
    245      -2.9778      1.00000
    246      -2.9769      1.00000
    247      -2.9438      1.00000
    248      -2.9363      1.00000
    249      -2.9085      1.00000
    250      -2.8759      1.00000
    251      -2.8678      1.00000
    252      -2.8284      1.00000
    253      -2.8218      1.00000
    254      -2.8013      1.00000
    255      -2.7924      1.00000
    256      -2.7739      1.00000
    257      -2.7594      1.00000
    258      -2.7415      1.00000
    259      -2.7213      1.00000
    260      -2.7045      1.00000
    261      -2.6837      1.00000
    262      -2.6699      1.00000
    263      -2.6615      1.00000
    264      -2.6410      1.00000
    265      -2.6346      1.00000
    266      -2.4897      1.00000
    267      -2.4020      1.00000
    268      -1.9765      1.00000
    269      -1.9448      1.00000
    270      -1.9181      1.00000
    271      -1.8854      1.00000
    272      -1.8348      1.00000
    273      -1.8168      1.00000
    274      -1.8085      1.00000
    275      -1.7924      1.00000
    276      -1.7840      1.00000
    277      -1.7483      1.00000
    278      -1.7288      1.00000
    279      -1.6907      1.00000
    280      -1.6632      1.00000
    281      -1.6106      1.00000
    282      -1.5435      1.00000
    283      -1.5136      1.00000
    284      -1.4926      1.00000
    285      -1.4853      1.00000
    286      -1.3881      1.00000
    287      -1.3608      1.00000
    288      -1.3316      1.00000
    289      -1.2642      1.00000
    290      -1.2177      1.00000
    291      -1.1691      1.00000
    292      -1.1368      1.00000
    293      -1.1196      1.00000
    294      -1.1086      1.00000
    295      -1.0619      1.00000
    296      -1.0355      1.00000
    297      -0.9997      1.00000
    298      -0.9899      1.00000
    299      -0.9836      1.00000
    300      -0.9650      1.00000
    301      -0.9371      1.00000
    302      -0.9077      1.00000
    303      -0.8946      1.00000
    304      -0.8834      1.00000
    305      -0.8534      1.00000
    306      -0.8461      1.00000
    307      -0.8262      1.00000
    308      -0.8160      1.00000
    309      -0.8011      1.00000
    310      -0.7776      1.00000
    311      -0.7683      1.00000
    312      -0.7475      1.00000
    313      -0.7256      1.00000
    314      -0.7037      1.00000
    315      -0.6899      1.00000
    316      -0.6770      1.00000
    317      -0.6688      1.00000
    318      -0.6520      1.00000
    319      -0.6334      1.00000
    320      -0.6179      1.00000
    321      -0.5994      1.00000
    322      -0.5930      1.00000
    323      -0.5722      1.00000
    324      -0.5601      1.00000
    325      -0.5548      1.00000
    326      -0.5374      1.00000
    327      -0.5170      1.00000
    328      -0.4944      1.00000
    329      -0.4734      1.00000
    330      -0.4603      1.00000
    331      -0.4317      1.00000
    332      -0.4091      1.00000
    333      -0.3923      1.00000
    334      -0.3735      1.00000
    335      -0.3636      1.00000
    336      -0.3240      1.00000
    337      -0.2708      1.00000
    338      -0.2462      1.00000
    339      -0.2178      1.00000
    340      -0.1977      1.00000
    341      -0.1561      1.00000
    342      -0.1382      1.00000
    343      -0.0992      1.00000
    344      -0.0688      1.00000
    345      -0.0596      1.00000
    346      -0.0450      1.00000
    347      -0.0363      1.00000
    348      -0.0213      1.00000
    349      -0.0040      1.00000
    350       0.0036      1.00000
    351       0.0132      1.00000
    352       0.0241      1.00000
    353       0.0411      1.00000
    354       0.0675      1.00000
    355       0.0769      1.00000
    356       0.0894      1.00000
    357       0.0973      1.00000
    358       0.1188      1.00000
    359       0.1289      1.00000
    360       0.1548      1.00000
    361       0.1615      1.00000
    362       0.1823      1.00000
    363       0.2351      1.00000
    364       0.2609      1.00000
    365       0.2784      1.00000
    366       0.2939      1.00000
    367       0.3038      1.00000
    368       0.3085      1.00000
    369       0.3273      1.00000
    370       0.3430      1.00000
    371       0.3499      1.00000
    372       0.3563      1.00000
    373       0.3731      1.00000
    374       0.3763      1.00000
    375       0.3989      1.00000
    376       0.4229      1.00000
    377       0.4278      1.00000
    378       0.4424      1.00000
    379       0.4737      1.00000
    380       0.4882      1.00000
    381       0.4993      1.00000
    382       0.5390      1.00000
    383       0.5478      1.00000
    384       0.5691      1.00000
    385       0.5747      1.00000
    386       0.6028      1.00000
    387       0.6278      1.00000
    388       0.6923      1.00000
    389       0.7419      1.00000
    390       0.7745      1.00000
    391       0.7880      1.00000
    392       0.7997      1.00000
    393       0.8217      1.00000
    394       0.8286      1.00000
    395       0.8412      1.00000
    396       0.8635      1.00000
    397       0.8841      1.00000
    398       0.9049      1.00000
    399       0.9189      1.00000
    400       0.9346      1.00000
    401       0.9426      1.00000
    402       0.9579      1.00000
    403       0.9802      1.00000
    404       0.9845      1.00000
    405       1.0029      1.00000
    406       1.0300      1.00000
    407       1.0556      1.00000
    408       1.0698      1.00000
    409       1.0923      1.00000
    410       1.1105      1.00000
    411       1.1310      1.00000
    412       1.1450      1.00000
    413       1.1535      1.00000
    414       1.1834      1.00000
    415       1.1888      1.00000
    416       1.1977      1.00000
    417       1.2137      1.00000
    418       1.2311      1.00000
    419       1.2417      1.00000
    420       1.2617      1.00000
    421       1.2743      1.00000
    422       1.2791      1.00000
    423       1.3012      1.00000
    424       1.3217      1.00000
    425       1.3386      1.00000
    426       1.3474      1.00000
    427       1.3607      1.00000
    428       1.3719      1.00000
    429       1.3817      1.00000
    430       1.3881      1.00000
    431       1.4014      1.00000
    432       1.4149      1.00000
    433       1.4265      1.00000
    434       1.4352      1.00000
    435       1.4457      1.00000
    436       1.4682      1.00000
    437       1.4832      1.00000
    438       1.5100      1.00000
    439       1.5244      1.00000
    440       1.5323      1.00000
    441       1.5478      1.00000
    442       1.5641      1.00000
    443       1.5963      1.00000
    444       1.6223      1.00000
    445       1.6380      1.00000
    446       1.6450      1.00000
    447       1.6687      1.00000
    448       1.6884      1.00000
    449       1.7040      1.00000
    450       1.7495      1.00000
    451       1.7631      1.00000
    452       1.8052      1.00000
    453       1.8101      1.00000
    454       1.8449      1.00000
    455       1.8808      1.00000
    456       1.9510      1.00000
    457       2.0090      1.00000
    458       2.0298      1.00000
    459       2.1021      1.00000
    460       3.2530      1.00000
    461       4.3187      0.00000
    462       4.3658      0.00000
    463       4.3968      0.00000
    464       4.4038      0.00000
    465       4.4105      0.00000
    466       4.4179      0.00000
    467       4.4274      0.00000
    468       4.4372      0.00000
    469       4.4552      0.00000
    470       4.4611      0.00000
    471       4.4697      0.00000
    472       4.4777      0.00000
    473       4.4810      0.00000
    474       4.4875      0.00000
    475       4.4939      0.00000
    476       4.5024      0.00000
    477       4.5090      0.00000
    478       4.5189      0.00000
    479       4.5306      0.00000
    480       4.5470      0.00000
    481       4.5557      0.00000
    482       4.5615      0.00000
    483       4.5749      0.00000
    484       4.5830      0.00000
    485       4.5977      0.00000
    486       4.6040      0.00000
    487       4.6109      0.00000
    488       4.6164      0.00000
    489       4.6274      0.00000
    490       4.6323      0.00000
    491       4.6383      0.00000
    492       4.6437      0.00000
    493       4.6533      0.00000
    494       4.6589      0.00000
    495       4.6669      0.00000
    496       4.6727      0.00000
    497       4.6779      0.00000
    498       4.6843      0.00000
    499       4.6877      0.00000
    500       4.6943      0.00000
    501       4.7040      0.00000
    502       4.7083      0.00000
    503       4.7190      0.00000
    504       4.7248      0.00000
    505       4.7339      0.00000
    506       4.7476      0.00000
    507       4.7537      0.00000
    508       4.7613      0.00000
    509       4.7670      0.00000
    510       4.7746      0.00000
    511       4.7812      0.00000
    512       4.7851      0.00000
    513       4.7899      0.00000
    514       4.8063      0.00000
    515       4.8093      0.00000
    516       4.8218      0.00000
    517       4.8281      0.00000
    518       4.8325      0.00000
    519       4.8456      0.00000
    520       4.8491      0.00000
    521       4.8562      0.00000
    522       4.8633      0.00000
    523       4.8787      0.00000
    524       4.8898      0.00000
    525       4.9039      0.00000
    526       4.9049      0.00000
    527       4.9221      0.00000
    528       4.9277      0.00000
    529       4.9393      0.00000
    530       4.9462      0.00000
    531       4.9580      0.00000
    532       4.9667      0.00000
    533       4.9759      0.00000
    534       4.9787      0.00000
    535       4.9880      0.00000
    536       5.0050      0.00000
    537       5.0194      0.00000
    538       5.0376      0.00000
    539       5.0749      0.00000
    540       5.0825      0.00000
    541       5.0940      0.00000
    542       5.1076      0.00000
    543       5.1267      0.00000
    544       5.1442      0.00000
    545       5.1559      0.00000
    546       5.2137      0.00000
    547       5.2177      0.00000
    548       5.2248      0.00000
    549       5.2363      0.00000
    550       5.2766      0.00000
    551       5.2898      0.00000
    552       5.3420      0.00000
    553       5.4486      0.00000
    554       5.4669      0.00000
    555       5.4716      0.00000
    556       5.4913      0.00000
    557       5.5098      0.00000
    558       5.5310      0.00000
    559       5.5479      0.00000
    560       5.5686      0.00000
    561       5.5873      0.00000
    562       5.5999      0.00000
    563       5.6124      0.00000
    564       5.6220      0.00000
    565       5.6355      0.00000
    566       5.6609      0.00000
    567       5.6688      0.00000
    568       5.6871      0.00000
    569       5.7024      0.00000
    570       5.7214      0.00000
    571       5.7342      0.00000
    572       5.7419      0.00000
    573       5.7546      0.00000
    574       5.7754      0.00000
    575       5.7906      0.00000
    576       7.8259      0.00000
    577       7.9772      0.00000
    578       8.2287      0.00000
    579       8.5598      0.00000
    580       9.1484      0.00000
    581       9.2610      0.00000
    582       9.3102      0.00000
    583       9.3482      0.00000
    584       9.4569      0.00000
    585       9.8784      0.00000
    586       9.9106      0.00000
    587       9.9249      0.00000
    588       9.9475      0.00000
    589       9.9575      0.00000
    590      10.3960      0.00000
    591      10.4000      0.00000
    592      10.5781      0.00000
    593      10.6268      0.00000
    594      10.7459      0.00000
    595      10.7866      0.00000
    596      10.8262      0.00000
    597      10.8432      0.00000
    598      10.8494      0.00000
    599      10.8763      0.00000
    600      10.9131      0.00000
    601      10.9497      0.00000
    602      10.9654      0.00000
    603      11.0139      0.00000
    604      11.1415      0.00000
    605      11.1639      0.00000
    606      11.1956      0.00000
    607      11.2095      0.00000
    608      11.2387      0.00000
    609      11.2674      0.00000
    610      11.2945      0.00000
    611      11.2986      0.00000
    612      11.3182      0.00000
    613      11.3416      0.00000
    614      11.3506      0.00000
    615      11.3679      0.00000
    616      11.3832      0.00000
    617      11.4095      0.00000
    618      11.4251      0.00000
    619      11.4519      0.00000
    620      11.5003      0.00000
    621      11.5519      0.00000
    622      11.5646      0.00000
    623      11.5945      0.00000
    624      11.6182      0.00000
    625      11.6225      0.00000
    626      11.6494      0.00000
    627      11.6753      0.00000
    628      11.6863      0.00000
    629      11.7439      0.00000
    630      11.7700      0.00000
    631      11.7944      0.00000
    632      11.8143      0.00000
    633      11.8391      0.00000
    634      11.8911      0.00000
    635      11.9004      0.00000
    636      11.9206      0.00000
    637      11.9374      0.00000
    638      11.9547      0.00000
    639      11.9799      0.00000
    640      12.0007      0.00000
    641      12.0404      0.00000
    642      12.0550      0.00000
    643      12.0712      0.00000
    644      12.1014      0.00000
    645      12.1140      0.00000
    646      12.1464      0.00000
    647      12.1800      0.00000
    648      12.2006      0.00000
    649      12.2170      0.00000
    650      12.2422      0.00000
    651      12.2774      0.00000
    652      12.2870      0.00000
    653      12.3131      0.00000
    654      12.3407      0.00000
    655      12.3586      0.00000
    656      12.4074      0.00000
    657      12.4202      0.00000
    658      12.4340      0.00000
    659      12.4589      0.00000
    660      12.4802      0.00000
    661      12.4847      0.00000
    662      12.5360      0.00000
    663      12.5435      0.00000
    664      12.5883      0.00000
    665      12.6203      0.00000
    666      12.6623      0.00000
    667      12.6726      0.00000
    668      12.7582      0.00000
    669      12.7853      0.00000
    670      12.8124      0.00000
    671      12.8228      0.00000
    672      12.8637      0.00000
    673      12.9930      0.00000
    674      13.0478      0.00000
    675      13.0827      0.00000
    676      13.0976      0.00000
    677      13.1193      0.00000
    678      13.1352      0.00000
    679      13.1638      0.00000
    680      13.1794      0.00000
    681      13.1981      0.00000
    682      13.2382      0.00000
    683      13.2747      0.00000
    684      13.2972      0.00000
    685      13.3244      0.00000
    686      13.4775      0.00000
    687      13.5026      0.00000
    688      13.5337      0.00000
    689      13.5542      0.00000
    690      13.5756      0.00000
    691      13.5990      0.00000
    692      13.6471      0.00000
    693      13.6805      0.00000
    694      13.6941      0.00000
    695      13.7247      0.00000
    696      13.7837      0.00000


--------------------------------------------------------------------------------------------------------


 soft charge-density along one line, spin component           1
         0         1         2         3         4         5         6         7         8         9
 total charge-density along one line

 soft charge-density along one line, spin component           2
         0         1         2         3         4         5         6         7         8         9
 total charge-density along one line

 pseudopotential strength for first ion, spin component:           1
-53.001   0.003  -0.002  10.975  -0.001   0.001  -0.004  -0.012
  0.003 -53.036   0.087  -0.001  10.990  -0.030   0.000  -0.000
 -0.002   0.087 -52.978   0.001  -0.030  10.971  -0.000   0.000
 10.975  -0.001   0.001   4.836   0.000  -0.000   0.002   0.000
 -0.001  10.990  -0.030   0.000   4.833   0.005  -0.000   0.000
  0.001  -0.030  10.971  -0.000   0.005   4.836   0.000  -0.000
 -0.004   0.000  -0.000   0.002  -0.000   0.000 -10.984   0.075
 -0.012  -0.000   0.000   0.000   0.000  -0.000   0.075 -11.036
 -0.000  -0.013   0.009   0.000   0.004  -0.006   0.001   0.001
  0.000   0.011  -0.015  -0.000  -0.007   0.004  -0.000  -0.000
  0.000  -0.001  -0.002   0.000   0.002   0.001  -0.001  -0.001
 -0.004   0.000  -0.000   0.002  -0.000   0.000 -11.452   0.077
 -0.012  -0.000   0.000   0.000   0.000  -0.000   0.077 -11.506
 -0.000  -0.012   0.009   0.000   0.004  -0.006   0.001   0.001
  0.000   0.010  -0.015  -0.000  -0.007   0.004  -0.000  -0.000
  0.000  -0.001  -0.002   0.000   0.002   0.001  -0.001  -0.001
  0.000   0.003  -0.000   0.000   0.001  -0.000   0.000  -0.000
 -0.000   0.006  -0.000   0.000   0.004  -0.000   0.001  -0.001
 pseudopotential strength for first ion, spin component:           2
-49.229   0.003  -0.002   9.390  -0.001   0.001   0.005  -0.033
  0.003 -49.248   0.080  -0.001   9.397  -0.033  -0.000  -0.000
 -0.002   0.080 -49.185   0.001  -0.033   9.371  -0.001  -0.000
  9.390  -0.001   0.001   5.304  -0.000   0.000  -0.004   0.016
 -0.001   9.397  -0.033  -0.000   5.302  -0.002   0.000   0.000
  0.001  -0.033   9.371   0.000  -0.002   5.300   0.000   0.000
  0.005  -0.000  -0.001  -0.004   0.000   0.000  -3.625   0.263
 -0.033  -0.000  -0.000   0.016   0.000   0.000   0.263  -3.849
  0.001  -0.017  -0.019  -0.000   0.006   0.014   0.002  -0.005
 -0.000  -0.023  -0.014   0.000   0.017   0.003  -0.005   0.006
  0.001   0.009   0.005  -0.001  -0.006  -0.003  -0.001  -0.004
  0.004  -0.000  -0.001  -0.004   0.000   0.000  -4.030   0.267
 -0.032  -0.000  -0.000   0.016   0.000   0.000   0.267  -4.258
  0.001  -0.017  -0.018  -0.000   0.006   0.015   0.002  -0.005
 -0.000  -0.022  -0.014   0.000   0.018   0.003  -0.006   0.007
  0.001   0.009   0.005  -0.001  -0.006  -0.003  -0.001  -0.004
  0.000   0.007   0.000   0.000   0.002  -0.000   0.001  -0.001
  0.001   0.016   0.001   0.000   0.006  -0.000   0.001  -0.002
 total augmentation occupancy for first ion, spin component:           1
  1.986  -0.000  -0.000  -0.053   0.000  -0.000  -0.007   0.011  -0.000   0.000  -0.000   0.007  -0.009   0.000  -0.000   0.000
 -0.000   1.986  -0.000   0.000  -0.052   0.001   0.000  -0.000   0.002   0.017  -0.006  -0.000   0.000  -0.001  -0.015   0.005
 -0.000  -0.000   1.986  -0.000   0.001  -0.051   0.000   0.000   0.014  -0.001  -0.000  -0.000  -0.000  -0.013   0.001   0.000
 -0.053   0.000  -0.000   0.159   0.002  -0.001  -0.102   0.207  -0.004   0.004  -0.005   0.101  -0.201   0.004  -0.004   0.005
  0.000  -0.052   0.001   0.002   0.166   0.040   0.005  -0.002  -0.042   0.254  -0.135  -0.005   0.002   0.037  -0.262   0.137
 -0.000   0.001  -0.051  -0.001   0.040   0.200   0.003   0.005   0.203  -0.052   0.002  -0.003  -0.005  -0.215   0.049   0.002
 -0.007   0.000   0.000  -0.102   0.005   0.003   8.150  -2.005  -0.010   0.100   0.034  -5.770   1.938   0.009  -0.098  -0.034
  0.011  -0.000   0.000   0.207  -0.002   0.005  -2.005   9.788   0.035  -0.062  -0.005   1.939  -7.357  -0.034   0.060   0.006
 -0.000   0.002   0.014  -0.004  -0.042   0.203  -0.010   0.035   6.722   0.062   0.029   0.009  -0.034  -4.400  -0.055  -0.016
  0.000   0.017  -0.001   0.004   0.254  -0.052   0.100  -0.062   0.062  12.530   4.730  -0.098   0.060  -0.053 -10.122  -4.646
 -0.000  -0.006  -0.000  -0.005  -0.135   0.002   0.034  -0.005   0.029   4.730  10.822  -0.034   0.006  -0.014  -4.650  -8.414
  0.007  -0.000  -0.000   0.101  -0.005  -0.003  -5.770   1.939   0.009  -0.098  -0.034   4.630  -1.915  -0.009   0.098   0.033
 -0.009   0.000  -0.000  -0.201   0.002  -0.005   1.938  -7.357  -0.034   0.060   0.006  -1.915   6.204   0.034  -0.059  -0.006
  0.000  -0.001  -0.013   0.004   0.037  -0.215   0.009  -0.034  -4.400  -0.053  -0.014  -0.009   0.034   3.285   0.062   0.002
 -0.000  -0.015   0.001  -0.004  -0.262   0.049  -0.098   0.060  -0.055 -10.122  -4.650   0.098  -0.059   0.062   8.999   4.642
  0.000   0.005   0.000   0.005   0.137   0.002  -0.034   0.006  -0.016  -4.646  -8.414   0.033  -0.006   0.002   4.642   7.277
 -0.000  -0.007   0.000  -0.001  -0.018   0.000   0.008  -0.028   0.081  -0.678  -0.441  -0.009   0.029  -0.087   0.706   0.447
  0.000   0.003   0.000   0.000   0.000   0.000   0.001  -0.001   0.006  -0.016  -0.001  -0.000  -0.000  -0.002  -0.003  -0.006
 total augmentation occupancy for first ion, spin component:           2
 -0.004  -0.000   0.000  -0.013  -0.000   0.000   0.000  -0.003   0.000  -0.000   0.000  -0.000   0.003  -0.000   0.000  -0.000
 -0.000  -0.004  -0.000  -0.000  -0.013  -0.001  -0.000  -0.000  -0.002  -0.004   0.001   0.000   0.000   0.002   0.004  -0.001
  0.000  -0.000  -0.004   0.000  -0.001  -0.014  -0.000  -0.000  -0.003  -0.002   0.002   0.000   0.000   0.004   0.001  -0.002
 -0.013  -0.000   0.000   0.017   0.000  -0.000  -0.048   0.092  -0.002   0.002  -0.003   0.037  -0.068   0.001  -0.001   0.002
 -0.000  -0.013  -0.001   0.000   0.018   0.001   0.003  -0.002  -0.009   0.144  -0.055  -0.002   0.002   0.009  -0.100   0.034
  0.000  -0.001  -0.014  -0.000   0.001   0.018   0.001   0.003   0.114  -0.020  -0.013  -0.000  -0.002  -0.074   0.017   0.007
  0.000  -0.000  -0.000  -0.048   0.003   0.001   7.455  -1.527  -0.008   0.072   0.022  -4.782   1.328   0.007  -0.064  -0.020
 -0.003  -0.000  -0.000   0.092  -0.002   0.003  -1.527   8.609   0.028  -0.052  -0.002   1.328  -5.784  -0.024   0.046   0.003
  0.000  -0.002  -0.003  -0.002  -0.009   0.114  -0.008   0.028   6.295   0.150   0.036   0.007  -0.024  -3.775  -0.139  -0.034
 -0.000  -0.004  -0.002   0.002   0.144  -0.020   0.072  -0.052   0.150  10.247   3.350  -0.064   0.046  -0.141  -7.239  -2.941
  0.000   0.001   0.002  -0.003  -0.055  -0.013   0.022  -0.002   0.036   3.350   9.206  -0.020   0.003  -0.035  -2.939  -6.328
 -0.000   0.000   0.000   0.037  -0.002  -0.000  -4.782   1.328   0.007  -0.064  -0.020   3.147  -1.104  -0.006   0.054   0.018
  0.003   0.000   0.000  -0.068   0.002  -0.002   1.328  -5.784  -0.024   0.046   0.003  -1.104   3.973   0.020  -0.039  -0.003
 -0.000   0.002   0.004   0.001   0.009  -0.074   0.007  -0.024  -3.775  -0.141  -0.035  -0.006   0.020   2.310   0.115   0.034
  0.000   0.004   0.001  -0.001  -0.100   0.017  -0.064   0.046  -0.139  -7.239  -2.939   0.054  -0.039   0.115   5.241   2.481
 -0.000  -0.001  -0.002   0.002   0.034   0.007  -0.020   0.003  -0.034  -2.941  -6.328   0.018  -0.003   0.034   2.481   4.468
  0.000   0.001  -0.000  -0.000  -0.002   0.001   0.003  -0.009   0.020  -0.226  -0.168  -0.002   0.006  -0.014   0.165   0.128
 -0.000  -0.000   0.000  -0.000  -0.001   0.000   0.001  -0.002   0.009  -0.048  -0.022  -0.001   0.001  -0.006   0.036   0.019


------------------------ aborting loop because EDIFF is reached ----------------------------------------





 total charge

# of ion       s       p       d       tot
------------------------------------------
    1        0.270   6.321   5.544  12.136
    2        0.271   6.322   5.546  12.140
    3        0.272   6.325   5.548  12.145
    4        0.272   6.326   5.547  12.145
    5        0.272   6.325   5.547  12.144
    6        0.272   6.326   5.548  12.146
    7        0.271   6.324   5.547  12.142
    8        0.271   6.323   5.545  12.138
    9        0.274   6.328   5.563  12.165
   10        0.272   6.323   5.550  12.144
   11        0.271   6.324   5.548  12.143
   12        0.201   6.204   5.931  12.336
   13        0.272   6.326   5.549  12.147
   14        0.272   6.325   5.546  12.144
   15        0.269   6.319   5.541  12.129
   16        0.277   6.335   5.555  12.167
   17        0.271   6.325   5.547  12.143
   18        0.271   6.324   5.545  12.140
   19        0.271   6.324   5.545  12.140
   20        0.272   6.325   5.546  12.142
   21        0.272   6.326   5.548  12.146
   22        0.271   6.323   5.545  12.140
   23        0.271   6.323   5.545  12.139
   24        0.271   6.322   5.544  12.137
   25        1.567   3.603   0.000   5.171
   26        1.567   3.602   0.000   5.170
   27        1.567   3.602   0.000   5.169
   28        1.568   3.602   0.000   5.170
   29        1.565   3.598   0.000   5.163
   30        1.564   3.599   0.000   5.163
   31        1.565   3.600   0.000   5.165
   32        1.565   3.597   0.000   5.163
   33        1.564   3.570   0.000   5.135
   34        1.565   3.561   0.000   5.125
   35        1.565   3.568   0.000   5.133
   36        1.564   3.569   0.000   5.133
   37        1.565   3.582   0.000   5.148
   38        1.564   3.570   0.000   5.134
   39        1.564   3.568   0.000   5.132
   40        1.564   3.569   0.000   5.133
   41        1.568   3.603   0.000   5.171
   42        1.567   3.605   0.000   5.172
   43        1.568   3.605   0.000   5.173
   44        1.567   3.603   0.000   5.171
   45        1.565   3.597   0.000   5.161
   46        1.565   3.598   0.000   5.163
   47        1.566   3.596   0.000   5.162
   48        1.565   3.599   0.000   5.164
   49        1.564   3.568   0.000   5.133
   50        1.564   3.569   0.000   5.133
   51        1.564   3.570   0.000   5.134
   52        1.564   3.568   0.000   5.133
   53        1.565   3.568   0.000   5.133
   54        1.564   3.567   0.000   5.132
   55        1.564   3.569   0.000   5.133
   56        1.564   3.570   0.000   5.134
   57        1.566   3.599   0.000   5.165
   58        1.564   3.597   0.000   5.162
   59        1.567   3.604   0.000   5.170
   60        1.566   3.622   0.000   5.188
   61        1.561   3.623   0.000   5.185
   62        1.564   3.599   0.000   5.164
   63        1.564   3.594   0.000   5.158
   64        1.570   3.593   0.000   5.164
   65        1.563   3.569   0.000   5.132
   66        1.565   3.570   0.000   5.135
   67        1.566   3.577   0.000   5.143
   68        1.563   3.582   0.000   5.145
   69        1.565   3.568   0.000   5.133
   70        1.565   3.584   0.000   5.149
   71        1.564   3.565   0.000   5.128
   72        1.564   3.584   0.000   5.148
   73        1.569   3.601   0.000   5.170
   74        1.569   3.605   0.000   5.174
   75        1.568   3.602   0.000   5.170
   76        1.571   3.613   0.000   5.184
   77        1.564   3.592   0.000   5.156
   78        1.565   3.600   0.000   5.165
   79        1.566   3.598   0.000   5.164
   80        1.566   3.606   0.000   5.172
   81        1.564   3.574   0.000   5.138
   82        1.564   3.573   0.000   5.137
   83        1.565   3.567   0.000   5.132
   84        1.563   3.568   0.000   5.131
   85        1.564   3.569   0.000   5.134
   86        1.564   3.569   0.000   5.132
   87        1.564   3.572   0.000   5.136
   88        1.564   3.567   0.000   5.131
   89        1.567   3.603   0.000   5.171
   90        1.568   3.603   0.000   5.170
   91        1.567   3.604   0.000   5.171
   92        1.568   3.602   0.000   5.169
   93        1.565   3.598   0.000   5.163
   94        1.565   3.598   0.000   5.162
   95        1.565   3.598   0.000   5.164
   96        1.566   3.597   0.000   5.163
   97        1.564   3.571   0.000   5.134
   98        1.564   3.568   0.000   5.133
   99        1.564   3.569   0.000   5.133
  100        1.564   3.569   0.000   5.133
  101        1.564   3.570   0.000   5.134
  102        1.565   3.566   0.000   5.131
  103        1.564   3.570   0.000   5.134
  104        1.564   3.570   0.000   5.134
  105        1.568   3.604   0.000   5.171
  106        1.568   3.603   0.000   5.171
  107        1.568   3.604   0.000   5.171
  108        1.568   3.603   0.000   5.170
  109        1.565   3.597   0.000   5.162
  110        1.565   3.598   0.000   5.163
  111        1.565   3.598   0.000   5.163
  112        1.565   3.599   0.000   5.164
  113        1.565   3.567   0.000   5.132
  114        1.564   3.570   0.000   5.134
  115        1.564   3.568   0.000   5.132
  116        1.564   3.568   0.000   5.133
  117        1.564   3.568   0.000   5.133
  118        1.564   3.567   0.000   5.130
  119        1.564   3.569   0.000   5.133
  120        1.564   3.569   0.000   5.134
  121        0.912   1.501   0.000   2.413
  122        0.912   1.501   0.000   2.413
  123        0.913   1.503   0.000   2.416
  124        0.913   1.501   0.000   2.414
  125        0.913   1.501   0.000   2.414
  126        0.913   1.499   0.000   2.412
  127        0.913   1.504   0.000   2.417
  128        0.912   1.500   0.000   2.412
  129        0.916   1.509   0.000   2.425
  130        0.915   1.505   0.000   2.420
  131        0.913   1.504   0.000   2.416
  132        0.914   1.514   0.000   2.428
  133        0.914   1.507   0.000   2.421
  134        0.912   1.496   0.000   2.409
  135        0.913   1.503   0.000   2.417
  136        0.914   1.503   0.000   2.417
  137        0.912   1.501   0.000   2.413
  138        0.913   1.501   0.000   2.414
  139        0.912   1.501   0.000   2.413
  140        0.913   1.501   0.000   2.413
  141        0.913   1.502   0.000   2.414
  142        0.913   1.501   0.000   2.414
  143        0.912   1.501   0.000   2.413
  144        0.912   1.500   0.000   2.413
  145        0.064   6.012   0.000   6.075
--------------------------------------------------
tot        178.693 537.963 133.522 850.178



 magnetization (x)

# of ion       s       p       d       tot
------------------------------------------
    1        0.024   0.031   4.302   4.356
    2        0.024   0.031   4.299   4.355
    3        0.023   0.032   4.302   4.356
    4        0.023   0.031   4.304   4.358
    5        0.023   0.031   4.303   4.357
    6        0.024   0.031   4.302   4.356
    7        0.023   0.032   4.301   4.356
    8        0.023   0.031   4.303   4.357
    9        0.023   0.032   4.282   4.338
   10        0.024   0.032   4.294   4.349
   11        0.023   0.031   4.300   4.355
   12        0.023   0.023   3.729   3.775
   13        0.023   0.032   4.300   4.356
   14        0.024   0.031   4.303   4.358
   15        0.023   0.032   4.303   4.358
   16        0.025   0.031   4.301   4.356
   17        0.023   0.031   4.301   4.356
   18        0.023   0.031   4.303   4.358
   19        0.023   0.031   4.303   4.357
   20        0.023   0.031   4.304   4.358
   21        0.023   0.032   4.302   4.357
   22        0.023   0.031   4.303   4.357
   23        0.023   0.031   4.303   4.357
   24        0.024   0.031   4.302   4.357
   25        0.007   0.097   0.000   0.105
   26        0.007   0.095   0.000   0.102
   27        0.007   0.097   0.000   0.104
   28        0.007   0.095   0.000   0.102
   29        0.008   0.101   0.000   0.108
   30        0.008   0.105   0.000   0.113
   31        0.008   0.095   0.000   0.103
   32        0.008   0.097   0.000   0.105
   33        0.011   0.129   0.000   0.140
   34        0.011   0.123   0.000   0.134
   35        0.011   0.130   0.000   0.141
   36        0.011   0.124   0.000   0.135
   37        0.009   0.102   0.000   0.112
   38        0.011   0.126   0.000   0.137
   39        0.011   0.128   0.000   0.140
   40        0.011   0.126   0.000   0.137
   41        0.007   0.095   0.000   0.103
   42        0.007   0.095   0.000   0.103
   43        0.007   0.094   0.000   0.101
   44        0.007   0.097   0.000   0.104
   45        0.008   0.102   0.000   0.109
   46        0.008   0.103   0.000   0.111
   47        0.007   0.093   0.000   0.101
   48        0.008   0.099   0.000   0.106
   49        0.011   0.128   0.000   0.139
   50        0.011   0.131   0.000   0.142
   51        0.011   0.124   0.000   0.135
   52        0.011   0.124   0.000   0.135
   53        0.011   0.125   0.000   0.136
   54        0.011   0.128   0.000   0.139
   55        0.011   0.128   0.000   0.139
   56        0.011   0.131   0.000   0.142
   57        0.007   0.105   0.000   0.112
   58        0.006   0.083   0.000   0.089
   59        0.007   0.098   0.000   0.105
   60        0.003   0.023   0.000   0.026
   61        0.008   0.090   0.000   0.098
   62        0.008   0.113   0.000   0.121
   63        0.007   0.080   0.000   0.087
   64        0.003   0.040   0.000   0.044
   65        0.012   0.134   0.000   0.145
   66        0.011   0.119   0.000   0.130
   67        0.009   0.102   0.000   0.111
   68        0.009   0.089   0.000   0.098
   69        0.011   0.128   0.000   0.139
   70        0.010   0.096   0.000   0.106
   71        0.011   0.131   0.000   0.142
   72        0.010   0.104   0.000   0.114
   73        0.007   0.097   0.000   0.104
   74        0.007   0.088   0.000   0.095
   75        0.007   0.098   0.000   0.105
   76        0.007   0.093   0.000   0.100
   77        0.007   0.096   0.000   0.104
   78        0.008   0.105   0.000   0.113
   79        0.007   0.093   0.000   0.100
   80        0.007   0.098   0.000   0.105
   81        0.011   0.128   0.000   0.140
   82        0.011   0.125   0.000   0.136
   83        0.011   0.125   0.000   0.136
   84        0.011   0.130   0.000   0.141
   85        0.011   0.125   0.000   0.136
   86        0.011   0.128   0.000   0.139
   87        0.011   0.124   0.000   0.136
   88        0.011   0.124   0.000   0.135
   89        0.007   0.095   0.000   0.102
   90        0.007   0.096   0.000   0.103
   91        0.007   0.096   0.000   0.103
   92        0.007   0.095   0.000   0.102
   93        0.008   0.102   0.000   0.109
   94        0.008   0.100   0.000   0.108
   95        0.008   0.099   0.000   0.107
   96        0.008   0.096   0.000   0.104
   97        0.011   0.131   0.000   0.142
   98        0.011   0.127   0.000   0.138
   99        0.011   0.127   0.000   0.138
  100        0.011   0.125   0.000   0.136
  101        0.011   0.126   0.000   0.137
  102        0.011   0.123   0.000   0.134
  103        0.011   0.127   0.000   0.138
  104        0.011   0.128   0.000   0.139
  105        0.007   0.096   0.000   0.103
  106        0.007   0.096   0.000   0.103
  107        0.007   0.097   0.000   0.104
  108        0.007   0.097   0.000   0.105
  109        0.008   0.101   0.000   0.109
  110        0.008   0.101   0.000   0.108
  111        0.008   0.099   0.000   0.106
  112        0.008   0.099   0.000   0.107
  113        0.011   0.127   0.000   0.138
  114        0.011   0.127   0.000   0.138
  115        0.011   0.127   0.000   0.139
  116        0.011   0.126   0.000   0.137
  117        0.011   0.126   0.000   0.137
  118        0.011   0.123   0.000   0.133
  119        0.011   0.128   0.000   0.139
  120        0.011   0.128   0.000   0.139
  121        0.004   0.013   0.000   0.017
  122        0.004   0.013   0.000   0.017
  123        0.004   0.013   0.000   0.017
  124        0.004   0.013   0.000   0.017
  125        0.004   0.013   0.000   0.017
  126        0.004   0.013   0.000   0.016
  127        0.004   0.013   0.000   0.017
  128        0.004   0.013   0.000   0.016
  129        0.002   0.009   0.000   0.012
  130        0.003   0.011   0.000   0.015
  131        0.004   0.013   0.000   0.017
  132        0.004   0.013   0.000   0.018
  133        0.004   0.013   0.000   0.017
  134        0.003   0.012   0.000   0.015
  135        0.004   0.013   0.000   0.017
  136        0.003   0.010   0.000   0.013
  137        0.004   0.013   0.000   0.017
  138        0.004   0.013   0.000   0.017
  139        0.004   0.013   0.000   0.017
  140        0.004   0.013   0.000   0.016
  141        0.004   0.013   0.000   0.016
  142        0.004   0.013   0.000   0.017
  143        0.004   0.013   0.000   0.017
  144        0.004   0.013   0.000   0.016
  145        0.000   0.000   0.000   0.001
--------------------------------------------------
tot          1.523  11.513 102.649 115.685

    FORLOC:  cpu time      0.0155: real time      0.0156
    FORNL :  cpu time      2.1673: real time      2.1836
    STRESS:  cpu time      6.3186: real time      6.3649
    FORCOR:  cpu time      0.1110: real time      0.1115
    OFIELD:  cpu time      0.0003: real time      0.0003

  FORCE on cell =-STRESS in cart. coord.  units (eV):
  Direction    XX          YY          ZZ          XY          YZ          ZX
  --------------------------------------------------------------------------------------
  Alpha Z  2952.23722  2952.23722  2952.23722
  Ewald  -22851.32705-18162.79217-21494.60519  -184.91275    43.78427  -198.02497
  Hartree 10019.03576 15496.90624 11937.08815  -114.48476    24.10197  -123.08092
  E(xc)   -5544.05907 -5547.22953 -5547.25166    -0.10530     0.05889    -0.17757
  Local   -4098.51700-14424.88266 -7348.21257   298.65277   -65.01624   317.94195
  n-local -1709.00114 -1832.13914 -1750.43779    -1.44523    -0.31250    -0.08724
  augment  3998.09792  3998.20658  3984.95569    -1.66429    -1.33426    -0.42263
  Kinetic 17243.90305 17527.27328 17274.37729     1.86388     0.12511    -0.67272
  Fock        0.00000     0.00000     0.00000     0.00000     0.00000     0.00000
  -------------------------------------------------------------------------------------
  Total      10.36970     7.57982     8.15112    -2.09569     1.40724    -4.52410
  in kB       9.64042     7.04675     7.57787    -1.94830     1.30828    -4.20593
  external pressure =        8.09 kB  Pullay stress =        0.00 kB


 VOLUME and BASIS-vectors are now :
 -----------------------------------------------------------------------------
  energy-cutoff  :      520.00
  volume of cell :     1723.38
      direct lattice vectors                 reciprocal lattice vectors
     9.962489075 -0.000069663 -0.000154526     0.100376522  0.000000553 -0.000000819
    -0.000097698 17.717656860 -0.000226836     0.000000395  0.056440872 -0.000000631
     0.000079674  0.000109170  9.763519320     0.000001589  0.000001311  0.102422084

  length of vectors
     9.962489076 17.717656862  9.763519321     0.100376522  0.056440872  0.102422084


 FORCES acting on ions:
    Electron-Ion                     Ewald-Force                    Non-Local-Force
 -----------------------------------------------------------------------------------------------
   -.480E+02 0.629E+01 0.350E+02   0.480E+02 -.635E+01 -.368E+02   -.147E-01 0.676E-01 0.177E+01
   0.616E+02 0.190E+02 0.317E+02   -.620E+02 -.194E+02 -.335E+02   0.459E+00 0.372E+00 0.184E+01
   0.242E+02 0.240E+02 -.401E+02   -.245E+02 -.228E+02 0.425E+02   0.250E+00 -.118E+01 -.246E+01
   -.365E+02 0.109E+02 -.220E+02   0.369E+02 -.101E+02 0.245E+02   -.380E+00 -.769E+00 -.249E+01
   -.445E+02 0.104E+02 0.336E+02   0.445E+02 -.102E+02 -.353E+02   -.660E-01 -.146E+00 0.172E+01
   0.597E+02 0.172E+02 0.451E+02   -.595E+02 -.176E+02 -.462E+02   -.123E+00 0.405E+00 0.112E+01
   0.498E+02 0.288E+02 -.344E+02   -.490E+02 -.277E+02 0.355E+02   -.804E+00 -.109E+01 -.107E+01
   -.464E+02 0.925E+01 -.341E+02   0.463E+02 -.906E+01 0.359E+02   0.130E+00 -.187E+00 -.179E+01
   0.113E+02 0.198E+02 -.124E+01   -.122E+02 -.208E+02 0.322E+00   0.880E+00 0.103E+01 0.902E+00
   0.109E+03 -.481E+02 0.451E+02   -.111E+03 0.484E+02 -.467E+02   0.215E+01 -.295E+00 0.163E+01
   -.120E+01 -.226E+02 -.223E+02   0.117E+01 0.218E+02 0.241E+02   0.280E-01 0.719E+00 -.184E+01
   -.119E+03 0.189E+02 -.124E+02   0.121E+03 -.196E+02 0.138E+02   -.194E+01 0.724E+00 -.142E+01
   0.707E+01 0.540E+01 0.817E+02   -.739E+01 -.623E+01 -.831E+02   0.329E+00 0.814E+00 0.143E+01
   0.640E+02 -.110E+02 0.378E+02   -.644E+02 0.113E+02 -.390E+02   0.324E+00 -.360E+00 0.125E+01
   0.386E+02 -.412E+02 -.471E+02   -.369E+02 0.400E+02 0.489E+02   -.170E+01 0.126E+01 -.176E+01
   -.910E+02 0.341E+00 -.450E+02   0.901E+02 -.719E+00 0.463E+02   0.956E+00 0.370E+00 -.136E+01
   -.367E+02 -.147E+02 0.265E+02   0.369E+02 0.151E+02 -.283E+02   -.179E+00 -.399E+00 0.189E+01
   0.446E+02 -.230E+01 0.297E+02   -.447E+02 0.257E+01 -.317E+02   0.110E+00 -.273E+00 0.196E+01
   0.438E+02 -.568E-01 -.318E+02   -.438E+02 0.268E+00 0.337E+02   0.465E-01 -.213E+00 -.187E+01
   -.455E+02 -.156E+02 -.259E+02   0.457E+02 0.152E+02 0.283E+02   -.208E+00 0.383E+00 -.233E+01
   -.433E+02 -.146E+02 0.399E+02   0.435E+02 0.149E+02 -.417E+02   -.169E+00 -.298E+00 0.179E+01
   0.468E+02 -.777E+00 0.339E+02   -.468E+02 0.110E+01 -.358E+02   0.723E-01 -.326E+00 0.186E+01
   0.458E+02 0.738E+00 -.344E+02   -.457E+02 -.471E+00 0.363E+02   -.133E-01 -.266E+00 -.190E+01
   -.467E+02 -.549E+01 -.305E+02   0.467E+02 0.579E+01 0.325E+02   -.250E-01 -.300E+00 -.195E+01
   0.192E+03 0.420E+01 -.568E+02   -.198E+03 -.410E+01 0.897E+02   0.649E+01 -.106E+00 -.329E+02
   -.193E+03 0.189E+02 -.598E+02   0.199E+03 -.192E+02 0.929E+02   -.678E+01 0.312E+00 -.331E+02
   -.189E+03 -.657E+01 0.551E+02   0.194E+03 0.751E+01 -.879E+02   -.566E+01 -.950E+00 0.328E+02
   0.194E+03 0.144E+01 0.598E+02   -.201E+03 -.167E+01 -.932E+02   0.662E+01 0.225E+00 0.333E+02
   -.569E+02 0.420E+01 -.169E+03   0.286E+02 -.435E+01 0.186E+03   0.283E+02 0.147E+00 -.170E+02
   0.629E+02 -.266E+01 -.160E+03   -.350E+02 0.326E+01 0.176E+03   -.279E+02 -.601E+00 -.161E+02
   0.475E+02 0.189E+02 0.164E+03   -.188E+02 -.199E+02 -.181E+03   -.287E+02 0.986E+00 0.165E+02
   -.507E+02 0.407E+01 0.170E+03   0.219E+02 -.465E+01 -.187E+03   0.288E+02 0.581E+00 0.171E+02
   0.101E+03 0.598E+02 0.685E+02   -.915E+02 -.824E+02 -.855E+02   -.964E+01 0.226E+02 0.170E+02
   -.883E+02 -.314E+02 0.715E+02   0.788E+02 0.544E+02 -.891E+02   0.942E+01 -.230E+02 0.175E+02
   -.103E+03 0.537E+02 -.818E+02   0.942E+02 -.759E+02 0.100E+03   0.892E+01 0.222E+02 -.182E+02
   0.982E+02 -.594E+02 -.706E+02   -.884E+02 0.826E+02 0.877E+02   -.979E+01 -.232E+02 -.171E+02
   -.108E+03 -.775E+02 -.374E+02   0.989E+02 0.103E+03 0.534E+02   0.943E+01 -.258E+02 -.160E+02
   0.101E+03 0.589E+02 -.701E+02   -.910E+02 -.816E+02 0.872E+02   -.958E+01 0.227E+02 -.171E+02
   0.104E+03 -.604E+02 0.646E+02   -.946E+02 0.835E+02 -.814E+02   -.956E+01 -.231E+02 0.167E+02
   -.979E+02 0.711E+02 0.599E+02   0.879E+02 -.940E+02 -.762E+02   0.999E+01 0.229E+02 0.163E+02
   0.195E+03 0.430E+01 -.580E+02   -.202E+03 -.438E+01 0.912E+02   0.648E+01 0.834E-01 -.332E+02
   -.192E+03 0.106E+02 -.539E+02   0.198E+03 -.103E+02 0.867E+02   -.601E+01 -.292E+00 -.329E+02
   -.194E+03 0.701E+01 0.563E+02   0.201E+03 -.734E+01 -.897E+02   -.683E+01 0.336E+00 0.334E+02
   0.192E+03 0.428E+01 0.572E+02   -.199E+03 -.430E+01 -.902E+02   0.666E+01 0.260E-01 0.330E+02
   -.560E+02 0.251E+01 -.166E+03   0.279E+02 -.209E+01 0.183E+03   0.281E+02 -.425E+00 -.170E+02
   0.617E+02 0.320E+01 -.172E+03   -.338E+02 -.339E+01 0.189E+03   -.280E+02 0.182E+00 -.174E+02
   0.433E+02 0.131E+02 0.169E+03   -.142E+02 -.135E+02 -.187E+03   -.292E+02 0.396E+00 0.175E+02
   -.541E+02 0.508E+01 0.165E+03   0.255E+02 -.515E+01 -.182E+03   0.286E+02 0.775E-01 0.170E+02
   0.100E+03 0.602E+02 0.730E+02   -.903E+02 -.828E+02 -.903E+02   -.973E+01 0.227E+02 0.174E+02
   -.925E+02 -.484E+02 0.684E+02   0.828E+02 0.708E+02 -.848E+02   0.971E+01 -.224E+02 0.165E+02
   -.102E+03 0.657E+02 -.687E+02   0.925E+02 -.887E+02 0.855E+02   0.970E+01 0.230E+02 -.168E+02
   0.994E+02 -.594E+02 -.624E+02   -.896E+02 0.827E+02 0.789E+02   -.987E+01 -.233E+02 -.166E+02
   -.104E+03 -.569E+02 -.761E+02   0.938E+02 0.805E+02 0.934E+02   0.100E+02 -.236E+02 -.173E+02
   0.102E+03 0.608E+02 -.706E+02   -.928E+02 -.835E+02 0.878E+02   -.930E+01 0.228E+02 -.172E+02
   0.102E+03 -.552E+02 0.701E+02   -.930E+02 0.780E+02 -.870E+02   -.942E+01 -.228E+02 0.169E+02
   -.102E+03 0.699E+02 0.667E+02   0.923E+02 -.928E+02 -.833E+02   0.951E+01 0.229E+02 0.166E+02
   0.220E+03 0.593E+01 -.458E+02   -.227E+03 -.641E+01 0.772E+02   0.718E+01 0.471E+00 -.314E+02
   -.166E+03 -.464E+02 -.350E+02   0.172E+03 0.469E+02 0.666E+02   -.619E+01 -.544E+00 -.316E+02
   -.195E+03 0.583E+01 0.539E+02   0.202E+03 -.685E+01 -.866E+02   -.613E+01 0.103E+01 0.327E+02
   0.978E+02 0.498E+02 0.517E+02   -.987E+02 -.526E+02 -.864E+02   0.834E+00 0.287E+01 0.347E+02
   -.518E+02 0.539E+02 -.785E+02   0.258E+02 -.574E+02 0.902E+02   0.260E+02 0.349E+01 -.117E+02
   0.721E+02 0.436E+01 -.166E+03   -.449E+02 -.491E+01 0.182E+03   -.272E+02 0.550E+00 -.167E+02
   0.166E+02 -.424E+02 0.125E+03   0.120E+02 0.410E+02 -.142E+03   -.286E+02 0.139E+01 0.163E+02
   -.566E+01 -.447E+01 0.170E+03   -.281E+02 0.583E+01 -.189E+03   0.337E+02 -.135E+01 0.190E+02
   0.115E+03 0.712E+02 0.533E+02   -.105E+03 -.931E+02 -.685E+02   -.996E+01 0.219E+02 0.151E+02
   -.898E+02 -.777E+02 0.646E+02   0.803E+02 0.101E+03 -.827E+02   0.956E+01 -.230E+02 0.180E+02
   -.112E+03 0.846E+02 -.350E+02   0.102E+03 -.111E+03 0.505E+02   0.100E+02 0.264E+02 -.155E+02
   0.911E+01 -.279E+02 -.630E+02   0.238E+01 0.489E+02 0.817E+02   -.115E+02 -.211E+02 -.187E+02
   -.103E+03 -.584E+02 -.802E+02   0.938E+02 0.810E+02 0.981E+02   0.922E+01 -.226E+02 -.179E+02
   0.487E+02 0.378E+02 -.945E+02   -.363E+02 -.587E+02 0.115E+03   -.123E+02 0.209E+02 -.209E+02
   0.113E+03 -.515E+02 0.650E+02   -.101E+03 0.723E+02 -.800E+02   -.118E+02 -.209E+02 0.150E+02
   0.149E+01 0.225E+02 -.421E+01   -.171E+02 -.434E+02 -.786E+01   0.156E+02 0.209E+02 0.121E+02
   0.211E+03 -.111E+01 -.661E+02   -.219E+03 0.938E+00 0.100E+03   0.793E+01 0.172E+00 -.339E+02
   -.195E+03 -.155E+02 -.696E+02   0.203E+03 0.162E+02 0.104E+03   -.770E+01 -.651E+00 -.345E+02
   -.197E+03 -.903E+01 0.571E+02   0.204E+03 0.947E+01 -.905E+02   -.710E+01 -.448E+00 0.334E+02
   0.196E+03 0.124E+01 0.578E+02   -.205E+03 -.243E+00 -.920E+02   0.904E+01 -.101E+01 0.342E+02
   -.567E+02 0.174E+01 -.191E+03   0.294E+02 -.496E+00 0.208E+03   0.273E+02 -.124E+01 -.178E+02
   0.638E+02 -.201E+01 -.172E+03   -.363E+02 0.211E+01 0.189E+03   -.276E+02 -.109E+00 -.177E+02
   0.438E+02 -.197E+02 0.185E+03   -.150E+02 0.211E+02 -.203E+03   -.287E+02 -.140E+01 0.182E+02
   -.597E+02 -.215E+01 0.173E+03   0.319E+02 0.254E+01 -.192E+03   0.278E+02 -.390E+00 0.191E+02
   0.114E+03 0.818E+02 0.514E+02   -.105E+03 -.106E+03 -.664E+02   -.899E+01 0.243E+02 0.150E+02
   -.886E+02 -.678E+02 0.612E+02   0.779E+02 0.906E+02 -.769E+02   0.107E+02 -.229E+02 0.157E+02
   -.104E+03 0.647E+02 -.673E+02   0.939E+02 -.889E+02 0.838E+02   0.100E+02 0.241E+02 -.165E+02
   0.862E+02 -.655E+02 -.711E+02   -.762E+02 0.879E+02 0.873E+02   -.995E+01 -.224E+02 -.162E+02
   -.102E+03 -.681E+02 -.669E+02   0.917E+02 0.913E+02 0.838E+02   0.993E+01 -.232E+02 -.169E+02
   0.945E+02 0.780E+02 -.631E+02   -.848E+02 -.101E+03 0.795E+02   -.969E+01 0.233E+02 -.164E+02
   0.104E+03 -.724E+02 0.596E+02   -.936E+02 0.959E+02 -.759E+02   -.104E+02 -.236E+02 0.163E+02
   -.847E+02 0.532E+02 0.753E+02   0.745E+02 -.761E+02 -.920E+02   0.101E+02 0.230E+02 0.167E+02
   0.195E+03 -.485E+01 -.591E+02   -.202E+03 0.472E+01 0.922E+02   0.648E+01 0.133E+00 -.332E+02
   -.194E+03 -.535E+00 -.589E+02   0.201E+03 0.391E+00 0.920E+02   -.657E+01 0.141E+00 -.331E+02
   -.193E+03 -.417E+00 0.581E+02   0.199E+03 0.358E+00 -.912E+02   -.649E+01 0.559E-01 0.331E+02
   0.191E+03 -.598E+01 0.579E+02   -.198E+03 0.614E+01 -.913E+02   0.676E+01 -.157E+00 0.334E+02
   -.567E+02 -.776E+01 -.166E+03   0.286E+02 0.766E+01 0.183E+03   0.281E+02 0.920E-01 -.171E+02
   0.553E+02 -.144E+01 -.167E+03   -.270E+02 0.143E+01 0.184E+03   -.284E+02 0.134E-01 -.168E+02
   0.538E+02 -.628E+00 0.167E+03   -.253E+02 0.358E+00 -.184E+03   -.285E+02 0.268E+00 0.171E+02
   -.499E+02 -.238E+01 0.170E+03   0.211E+02 0.238E+01 -.187E+03   0.289E+02 -.819E-02 0.173E+02
   0.105E+03 0.451E+02 0.753E+02   -.954E+02 -.667E+02 -.927E+02   -.953E+01 0.216E+02 0.174E+02
   -.101E+03 -.614E+02 0.664E+02   0.913E+02 0.845E+02 -.833E+02   0.967E+01 -.231E+02 0.169E+02
   -.101E+03 0.565E+02 -.712E+02   0.910E+02 -.793E+02 0.883E+02   0.958E+01 0.228E+02 -.172E+02
   0.992E+02 -.656E+02 -.650E+02   -.896E+02 0.887E+02 0.817E+02   -.959E+01 -.231E+02 -.167E+02
   -.101E+03 -.591E+02 -.687E+02   0.912E+02 0.822E+02 0.858E+02   0.962E+01 -.231E+02 -.171E+02
   0.877E+02 0.504E+02 -.660E+02   -.776E+02 -.738E+02 0.829E+02   -.101E+02 0.234E+02 -.169E+02
   0.102E+03 -.667E+02 0.647E+02   -.922E+02 0.898E+02 -.814E+02   -.980E+01 -.231E+02 0.167E+02
   -.101E+03 0.547E+02 0.697E+02   0.916E+02 -.773E+02 -.868E+02   0.956E+01 0.227E+02 0.171E+02
   0.197E+03 -.449E+01 -.569E+02   -.203E+03 0.464E+01 0.900E+02   0.649E+01 -.143E+00 -.331E+02
   -.194E+03 -.225E+01 -.578E+02   0.201E+03 0.209E+01 0.909E+02   -.652E+01 0.161E+00 -.331E+02
   -.193E+03 -.214E+00 0.570E+02   0.200E+03 0.148E+00 -.901E+02   -.665E+01 0.650E-01 0.331E+02
   0.192E+03 -.648E+01 0.592E+02   -.199E+03 0.667E+01 -.922E+02   0.683E+01 -.196E+00 0.330E+02
   -.570E+02 -.689E+01 -.169E+03   0.289E+02 0.699E+01 0.186E+03   0.281E+02 -.101E+00 -.171E+02
   0.562E+02 -.270E+00 -.167E+03   -.279E+02 0.197E+00 0.184E+03   -.283E+02 0.714E-01 -.169E+02
   0.531E+02 -.808E+00 0.168E+03   -.245E+02 0.770E+00 -.186E+03   -.286E+02 0.369E-01 0.172E+02
   -.542E+02 -.305E+01 0.166E+03   0.258E+02 0.307E+01 -.183E+03   0.284E+02 -.232E-01 0.170E+02
   0.101E+03 0.551E+02 0.712E+02   -.913E+02 -.782E+02 -.884E+02   -.100E+02 0.230E+02 0.173E+02
   -.102E+03 -.598E+02 0.679E+02   0.919E+02 0.828E+02 -.848E+02   0.965E+01 -.230E+02 0.169E+02
   -.100E+03 0.589E+02 -.674E+02   0.908E+02 -.819E+02 0.843E+02   0.964E+01 0.230E+02 -.169E+02
   0.975E+02 -.649E+02 -.651E+02   -.876E+02 0.879E+02 0.818E+02   -.985E+01 -.230E+02 -.167E+02
   -.100E+03 -.615E+02 -.663E+02   0.903E+02 0.847E+02 0.832E+02   0.975E+01 -.232E+02 -.169E+02
   0.946E+02 0.517E+02 -.687E+02   -.849E+02 -.746E+02 0.856E+02   -.975E+01 0.229E+02 -.169E+02
   0.105E+03 -.664E+02 0.626E+02   -.953E+02 0.895E+02 -.790E+02   -.928E+01 -.231E+02 0.165E+02
   -.101E+03 0.553E+02 0.729E+02   0.918E+02 -.779E+02 -.902E+02   0.957E+01 0.226E+02 0.173E+02
   0.668E+02 0.624E+00 0.358E+01   -.678E+02 -.664E+00 -.122E+01   0.110E+01 0.448E-01 -.247E+01
   -.646E+02 0.137E+02 0.299E+01   0.657E+02 -.137E+02 -.572E+00   -.111E+01 -.511E-01 -.254E+01
   -.675E+02 0.283E-01 0.439E+01   0.676E+02 0.711E+00 -.637E+01   -.435E-01 -.781E+00 0.206E+01
   0.645E+02 0.201E+01 -.512E+01   -.653E+02 -.188E+01 0.273E+01   0.769E+00 -.130E+00 0.250E+01
   0.667E+02 0.296E+01 0.524E+01   -.677E+02 -.307E+01 -.269E+01   0.980E+00 0.114E+00 -.267E+01
   -.660E+02 0.955E+01 0.477E+01   0.675E+02 -.977E+01 -.225E+01   -.147E+01 0.227E+00 -.263E+01
   -.662E+02 0.416E+01 -.726E+01   0.668E+02 -.383E+01 0.469E+01   -.556E+00 -.353E+00 0.269E+01
   0.663E+02 0.150E+01 -.348E+01   -.669E+02 -.146E+01 0.873E+00   0.676E+00 -.445E-01 0.273E+01
   0.822E+02 0.455E+01 -.215E+01   -.870E+02 -.445E+01 0.333E+01   0.509E+01 -.114E+00 -.124E+01
   -.540E+02 -.316E+02 -.252E+02   0.547E+02 0.316E+02 0.278E+02   -.760E+00 0.287E-01 -.271E+01
   -.701E+02 0.991E+00 0.380E+01   0.699E+02 -.160E+01 -.567E+01   0.217E+00 0.627E+00 0.195E+01
   0.202E+02 0.191E+02 0.207E+02   -.196E+02 -.195E+02 -.228E+02   -.624E+00 0.406E+00 0.223E+01
   0.721E+02 0.396E+00 -.402E+01   -.732E+02 -.193E+00 0.632E+01   0.116E+01 -.213E+00 -.240E+01
   -.579E+02 -.144E+02 0.130E+02   0.595E+02 0.143E+02 -.118E+02   -.166E+01 0.112E+00 -.127E+01
   -.675E+02 -.350E+01 -.414E+01   0.679E+02 0.334E+01 0.177E+01   -.462E+00 0.164E+00 0.247E+01
   0.529E+02 0.104E+02 -.248E+02   -.535E+02 -.105E+02 0.203E+02   0.598E+00 0.498E-01 0.468E+01
   0.684E+02 -.493E+01 0.448E+01   -.696E+02 0.518E+01 -.189E+01   0.128E+01 -.269E+00 -.271E+01
   -.666E+02 -.313E+01 0.333E+01   0.675E+02 0.317E+01 -.880E+00   -.923E+00 -.436E-01 -.257E+01
   -.664E+02 -.778E+00 -.458E+01   0.671E+02 0.825E+00 0.212E+01   -.761E+00 -.519E-01 0.258E+01
   0.628E+02 -.669E+01 -.205E+01   -.635E+02 0.653E+01 -.273E+00   0.697E+00 0.164E+00 0.243E+01
   0.678E+02 -.388E+01 0.358E+01   -.687E+02 0.362E+01 -.112E+01   0.917E+00 0.267E+00 -.257E+01
   -.666E+02 -.147E+01 0.447E+01   0.676E+02 0.149E+01 -.201E+01   -.989E+00 -.233E-01 -.258E+01
   -.658E+02 -.594E+00 -.392E+01   0.665E+02 0.671E+00 0.148E+01   -.746E+00 -.823E-01 0.255E+01
   0.626E+02 -.470E+01 -.470E+01   -.634E+02 0.469E+01 0.212E+01   0.786E+00 0.401E-02 0.270E+01
   -.184E+02 0.687E+01 0.354E+01   0.200E+02 -.700E+01 -.316E+01   -.142E+01 0.507E+00 -.456E+00
 -----------------------------------------------------------------------------------------------
   -.392E+01 -.165E+01 0.220E+01   -.639E-13 -.236E-11 -.724E-12   0.396E+01 0.165E+01 -.219E+01


 POSITION                                       TOTAL-FORCE (eV/Angst)
 -----------------------------------------------------------------------------------
      2.73849      1.48193      4.66806         0.004657      0.006425     -0.007872
      2.26610      4.40837      2.22072         0.008886      0.006196     -0.005487
      7.23815      4.40631      0.19908         0.008691     -0.002205      0.000171
      7.72248      1.45911      2.64291         0.005155      0.000058     -0.002623
      2.73870      1.46483      9.55035         0.006777      0.004831     -0.008371
      2.24851      4.39238      7.12475         0.002789      0.003772     -0.011963
      7.25310      4.42021      5.08503        -0.001849     -0.002761     -0.000472
      7.71322      1.47332      7.52375         0.004857     -0.000469      0.000034
      2.70279      7.33960      4.77081         0.010391     -0.012526     -0.017387
      2.20658     10.38948      2.24148        -0.016602     -0.006063      0.008538
      7.21870     10.32679      0.18763        -0.001757     -0.011197     -0.007359
      7.83799      7.33661      2.71927         0.011498     -0.016805      0.041279
      2.74259      7.34409      9.53221         0.006911     -0.016887      0.015873
      2.22605     10.36165      7.16303        -0.008063     -0.010903      0.010528
      7.22876     10.32767      5.09335        -0.015294     -0.007070      0.008390
      7.75133      7.36561      7.48230        -0.008379     -0.010129     -0.001926
      2.72465     13.32881      4.68718        -0.004004      0.007990      0.005686
      2.25027     16.25118      2.23099        -0.000301      0.001592     -0.002464
      7.22655     16.24216      0.20325        -0.000033     -0.001741     -0.000794
      7.71134     13.30787      2.64123        -0.002808     -0.005193     -0.002291
      2.73552     13.31771      9.55960        -0.002094     -0.000409      0.002754
      2.24291     16.25029      7.11351         0.000377      0.002404     -0.001535
      7.22590     16.24458      5.08760         0.001762      0.001290     -0.003989
      7.70656     13.29648      7.52573        -0.001897     -0.000492     -0.000319
      1.22263      1.46925      3.47780        -0.001096     -0.002256     -0.001572
      3.79256      4.39534      1.03616         0.002157     -0.008836     -0.003114
      8.74967      4.39227      1.40810         0.009767     -0.009019     -0.004272
      6.18900      1.46020      3.82395         0.004042     -0.001440      0.000032
      4.43577      1.45901      0.73624         0.002519     -0.001473     -0.002317
      0.57584      4.38639      3.16324         0.003120     -0.001202      0.002319
      5.54047      4.40040      4.15258         0.001517     -0.007021     -0.001925
      9.42499      1.44606      1.68102         0.001742     -0.000136     -0.001624
      1.69743      0.26208      1.25580         0.001590     -0.000140     -0.001959
      3.34040      5.65618      3.71183        -0.011563     -0.018343      0.003764
      8.32178      3.13880      3.61959         0.001915      0.002579      0.001052
      6.66729      2.66046      1.17470         0.003418     -0.002396      0.000087
      8.30752      5.52384      3.67824        -0.007217      0.000616     -0.014988
      6.66703      0.26111      1.17181         0.001499     -0.002173     -0.000105
      1.69501      2.65915      1.24694         0.000718      0.001370     -0.000514
      3.29108      3.24648      3.70141         0.004976     -0.012276     -0.001591
      1.21327      1.45988      8.36617         0.002458      0.001488     -0.003006
      3.76181      4.43329      5.93085         0.005266     -0.009481     -0.000105
      8.77544      4.40114      6.27222        -0.001467      0.003517     -0.005863
      6.19311      1.46439      8.70933         0.002608     -0.001040     -0.000819
      4.43565      1.48405      5.61611         0.003220     -0.002700      0.000045
      0.55868      4.40082      8.07421         0.001333      0.000529     -0.007912
      5.53311      4.39272      8.98538         0.006046     -0.002988      0.002220
      9.41547      1.46117      6.57745         0.001779     -0.001079     -0.002888
      1.68592      0.26576      6.13558         0.001334     -0.000253     -0.001322
      3.28839      5.59549      8.57371         0.009144     -0.000924      0.001939
      8.28154      3.21456      8.50062         0.004204     -0.000519     -0.003275
      6.67968      2.66159      6.05425         0.001068     -0.000014      0.000022
      8.30061      5.62026      8.48158        -0.001335     -0.002374     -0.004339
      6.65913      0.26493      6.05561         0.001987     -0.000355      0.000157
      1.68603      2.66236      6.13951         0.000556      0.000837     -0.004259
      3.29627      3.20214      8.57447         0.003162     -0.001110     -0.004199
      1.25376      7.36063      3.50865        -0.009555     -0.006653      0.001395
      3.80976     10.30661      1.09353         0.005832     -0.006734      0.014580
      8.71603     10.34588      1.40345         0.000878      0.001939     -0.008037
      6.12598      7.34737      3.85083        -0.053654     -0.003624     -0.003009
      4.48822      7.29773      0.62669         0.006404     -0.007824      0.044638
      0.52821     10.37032      3.17168        -0.014902     -0.007684      0.008634
      5.47443     10.29728      4.14319        -0.018111     -0.008576     -0.005260
      9.52622      7.41538      1.62365         0.003648      0.007470     -0.013508
      1.78521      6.18578      1.28089        -0.000956      0.000329     -0.002506
      3.27683     11.57052      3.73653        -0.010848      0.006745      0.012373
      8.25864      9.21370      3.66715        -0.025139     -0.014158     -0.022384
      6.61091      8.58358      1.06715         0.012404     -0.006654     -0.007969
      8.27646     11.60242      3.61410        -0.014809     -0.013889     -0.000162
      6.70504      6.14329      1.05690         0.019321     -0.008704      0.004217
      1.82649      8.57906      1.32242         0.002703      0.002992      0.005624
      3.20983      9.18282      3.81168        -0.019551      0.009082      0.017692
      1.18060      7.37557      8.40778         0.015951     -0.003517     -0.000357
      3.77198     10.40251      6.00103         0.003413      0.012225      0.018140
      8.75859     10.35792      6.27353        -0.006465     -0.005057     -0.008827
      6.20460      7.36540      8.59172        -0.005887     -0.015131      0.011137
      4.42467      7.39838      5.68410        -0.015384     -0.002062      0.031226
      0.53232     10.35387      8.08923        -0.009337     -0.006136     -0.004603
      5.50984     10.37229      9.00226        -0.004425      0.000046      0.005671
      9.43332      7.39409      6.55451         0.002787      0.001490      0.008366
      1.68868      6.18429      6.18508         0.001352     -0.000493     -0.005227
      3.25537     11.53302      8.64442        -0.009183     -0.005260      0.015397
      8.27185      9.13979      8.48607        -0.010296     -0.002939     -0.007301
      6.68262      8.57484      6.04709        -0.010070     -0.003697     -0.005154
      8.25923     11.54484      8.49996        -0.003227     -0.003082     -0.006487
      6.67625      6.17070      6.06060        -0.005224     -0.000758     -0.005550
      1.70129      8.58981      6.20188         0.000744      0.001750     -0.000582
      3.28364      9.13930      8.61488         0.000989     -0.005996      0.013691
      1.20700     13.30779      3.49026        -0.006078      0.002529      0.005344
      3.77440     16.23824      1.04390        -0.000420     -0.002516     -0.000312
      8.74863     16.23738      1.38990         0.000353     -0.002886     -0.001545
      6.17569     13.29945      3.82138        -0.003150     -0.001403     -0.001242
      4.43270     13.29227      0.74092        -0.000327     -0.003125      0.000824
      0.54766     16.24020      3.17721         0.001015     -0.002062     -0.001591
      5.52708     16.23932      4.13745         0.000120     -0.001746     -0.000765
      9.41824     13.30741      1.68474        -0.001379     -0.005688      0.002550
      1.68927     12.10293      1.26914        -0.001999     -0.004479      0.007937
      3.29891     17.44753      3.70147         0.001328      0.000022     -0.002884
      8.27686     15.03998      3.61800         0.000097     -0.002359     -0.001653
      6.66569     14.49162      1.17086        -0.000160     -0.003650     -0.000170
      8.27768     17.43601      3.62009         0.000759     -0.002665     -0.002202
      6.66077     12.08977      1.17025        -0.000226     -0.004560     -0.001679
      1.69300     14.49911      1.26020        -0.002138     -0.003685      0.001278
      3.29104     15.05048      3.70273        -0.001473      0.000184      0.000251
      1.20793     13.30568      8.37947        -0.002675     -0.001011      0.004706
      3.76834     16.24330      5.92998        -0.001012     -0.000004     -0.001553
      8.74844     16.23922      6.27035         0.000952     -0.001319     -0.000632
      6.18377     13.29731      8.70720        -0.001675     -0.000858     -0.000580
      4.43150     13.30194      5.62472        -0.001017      0.004463      0.001510
      0.54338     16.23991      8.06083         0.000425     -0.001558      0.000678
      5.52913     16.23980      9.01141        -0.000460     -0.001465      0.000168
      9.41036     13.29917      6.58734        -0.000901     -0.002098      0.001319
      1.67804     12.09678      6.16043        -0.001545     -0.003974      0.007051
      3.29509     17.43703      8.57805         0.000519     -0.001171     -0.000826
      8.27243     15.04059      8.49792         0.000069     -0.000950     -0.000760
      6.67067     14.48720      6.05375         0.001808     -0.004264     -0.000301
      8.27345     17.43932      8.49764         0.001202     -0.000704     -0.000222
      6.65701     12.08563      6.04263        -0.006088     -0.005837     -0.003444
      1.68030     14.49626      6.14599         0.000093     -0.003651      0.004349
      3.29664     15.04132      8.57986         0.000204     -0.002120      0.000005
      0.95969      1.46281      1.97361         0.002704      0.001126     -0.002253
      4.04123      4.43328      4.42994         0.000246     -0.008197     -0.003943
      9.02836      4.36234      2.90905         0.008315     -0.003512     -0.005005
      5.93696      1.46347      0.45092         0.002944     -0.001770     -0.000477
      0.95236      1.46171      6.86280         0.002206      0.000444     -0.003486
      4.04036      4.40004      9.29312         0.005260     -0.004277      0.000121
      9.02078      4.40991      7.77714         0.002689      0.000501     -0.002787
      5.93813      1.47052      5.32856         0.002189     -0.000984     -0.000871
      1.01773      7.38359      1.99305        -0.004349      0.001296      0.000717
      3.98365     10.38692      4.49830        -0.017210      0.007969      0.015555
      8.98086     10.37838      2.90617        -0.010041     -0.007344     -0.007251
      6.00834      7.32984      0.33255         0.003118     -0.017713      0.003441
      0.95430      7.38880      6.90026         0.010619      0.000184      0.000731
      4.02265     10.33677      9.33151        -0.005603     -0.003935      0.010530
      8.99648     10.34833      7.78052        -0.006985     -0.005408     -0.005273
      5.92412      7.36824      5.35254        -0.023238     -0.004641     -0.008411
      0.95047     13.30854      1.98639        -0.002353     -0.002560      0.003975
      4.02798     16.24841      4.42604         0.000684      0.000668     -0.001622
      9.00864     16.23922      2.89369         0.000009     -0.002930     -0.002184
      5.93374     13.29041      0.45001        -0.000065     -0.003359     -0.000046
      0.94676     13.29893      6.87598        -0.001747     -0.004065      0.003865
      4.03069     16.24106      9.30276         0.000489     -0.001678     -0.000822
      9.00445     16.24066      7.77507         0.000003     -0.000756     -0.000885
      5.93168     13.29388      5.32751        -0.001918     -0.000292     -0.001458
      4.76311      8.39408      2.50823         0.156273      0.369302     -0.071697
 -----------------------------------------------------------------------------------
    total drift:                                0.033505     -0.008400      0.017020


--------------------------------------------------------------------------------------------------------



  FREE ENERGIE OF THE ION-ELECTRON SYSTEM (eV)
  ---------------------------------------------------
  free  energy   TOTEN  =     -1020.17956629 eV

  energy  without entropy=    -1020.17956629  energy(sigma->0) =    -1020.17956629



--------------------------------------------------------------------------------------------------------


    POTLOK:  cpu time      0.5533: real time      0.5557


--------------------------------------------------------------------------------------------------------




--------------------------------------------------------------------------------------------------------


 writing wavefunctions
     LOOP+:  cpu time    145.1315: real time    173.1374
    4ORBIT:  cpu time      0.0000: real time      0.0000



 total charge

# of ion       s       p       d       tot
------------------------------------------
    1        0.270   6.321   5.544  12.136
    2        0.271   6.322   5.546  12.140
    3        0.272   6.325   5.548  12.145
    4        0.272   6.326   5.547  12.145
    5        0.272   6.325   5.547  12.144
    6        0.272   6.326   5.548  12.146
    7        0.271   6.324   5.547  12.142
    8        0.271   6.323   5.545  12.138
    9        0.274   6.328   5.563  12.165
   10        0.272   6.323   5.550  12.144
   11        0.271   6.324   5.548  12.143
   12        0.201   6.204   5.931  12.336
   13        0.272   6.326   5.549  12.147
   14        0.272   6.325   5.546  12.144
   15        0.269   6.319   5.541  12.129
   16        0.277   6.335   5.555  12.167
   17        0.271   6.325   5.547  12.143
   18        0.271   6.324   5.545  12.140
   19        0.271   6.324   5.545  12.140
   20        0.272   6.325   5.546  12.142
   21        0.272   6.326   5.548  12.146
   22        0.271   6.323   5.545  12.140
   23        0.271   6.323   5.545  12.139
   24        0.271   6.322   5.544  12.137
   25        1.567   3.603   0.000   5.171
   26        1.567   3.602   0.000   5.170
   27        1.567   3.602   0.000   5.169
   28        1.568   3.602   0.000   5.170
   29        1.565   3.598   0.000   5.163
   30        1.564   3.599   0.000   5.163
   31        1.565   3.600   0.000   5.165
   32        1.565   3.597   0.000   5.163
   33        1.564   3.570   0.000   5.135
   34        1.565   3.561   0.000   5.125
   35        1.565   3.568   0.000   5.133
   36        1.564   3.569   0.000   5.133
   37        1.565   3.582   0.000   5.148
   38        1.564   3.570   0.000   5.134
   39        1.564   3.568   0.000   5.132
   40        1.564   3.569   0.000   5.133
   41        1.568   3.603   0.000   5.171
   42        1.567   3.605   0.000   5.172
   43        1.568   3.605   0.000   5.173
   44        1.567   3.603   0.000   5.171
   45        1.565   3.597   0.000   5.161
   46        1.565   3.598   0.000   5.163
   47        1.566   3.596   0.000   5.162
   48        1.565   3.599   0.000   5.164
   49        1.564   3.568   0.000   5.133
   50        1.564   3.569   0.000   5.133
   51        1.564   3.570   0.000   5.134
   52        1.564   3.568   0.000   5.133
   53        1.565   3.568   0.000   5.133
   54        1.564   3.567   0.000   5.132
   55        1.564   3.569   0.000   5.133
   56        1.564   3.570   0.000   5.134
   57        1.566   3.599   0.000   5.165
   58        1.564   3.597   0.000   5.162
   59        1.567   3.604   0.000   5.170
   60        1.566   3.622   0.000   5.188
   61        1.561   3.623   0.000   5.185
   62        1.564   3.599   0.000   5.164
   63        1.564   3.594   0.000   5.158
   64        1.570   3.593   0.000   5.164
   65        1.563   3.569   0.000   5.132
   66        1.565   3.570   0.000   5.135
   67        1.566   3.577   0.000   5.143
   68        1.563   3.582   0.000   5.145
   69        1.565   3.568   0.000   5.133
   70        1.565   3.584   0.000   5.149
   71        1.564   3.565   0.000   5.128
   72        1.564   3.584   0.000   5.148
   73        1.569   3.601   0.000   5.170
   74        1.569   3.605   0.000   5.174
   75        1.568   3.602   0.000   5.170
   76        1.571   3.613   0.000   5.184
   77        1.564   3.592   0.000   5.156
   78        1.565   3.600   0.000   5.165
   79        1.566   3.598   0.000   5.164
   80        1.566   3.606   0.000   5.172
   81        1.564   3.574   0.000   5.138
   82        1.564   3.573   0.000   5.137
   83        1.565   3.567   0.000   5.132
   84        1.563   3.568   0.000   5.131
   85        1.564   3.569   0.000   5.134
   86        1.564   3.569   0.000   5.132
   87        1.564   3.572   0.000   5.136
   88        1.564   3.567   0.000   5.131
   89        1.567   3.603   0.000   5.171
   90        1.568   3.603   0.000   5.170
   91        1.567   3.604   0.000   5.171
   92        1.568   3.602   0.000   5.169
   93        1.565   3.598   0.000   5.163
   94        1.565   3.598   0.000   5.162
   95        1.565   3.598   0.000   5.164
   96        1.566   3.597   0.000   5.163
   97        1.564   3.571   0.000   5.134
   98        1.564   3.568   0.000   5.133
   99        1.564   3.569   0.000   5.133
  100        1.564   3.569   0.000   5.133
  101        1.564   3.570   0.000   5.134
  102        1.565   3.566   0.000   5.131
  103        1.564   3.570   0.000   5.134
  104        1.564   3.570   0.000   5.134
  105        1.568   3.604   0.000   5.171
  106        1.568   3.603   0.000   5.171
  107        1.568   3.604   0.000   5.171
  108        1.568   3.603   0.000   5.170
  109        1.565   3.597   0.000   5.162
  110        1.565   3.598   0.000   5.163
  111        1.565   3.598   0.000   5.163
  112        1.565   3.599   0.000   5.164
  113        1.565   3.567   0.000   5.132
  114        1.564   3.570   0.000   5.134
  115        1.564   3.568   0.000   5.132
  116        1.564   3.568   0.000   5.133
  117        1.564   3.568   0.000   5.133
  118        1.564   3.567   0.000   5.130
  119        1.564   3.569   0.000   5.133
  120        1.564   3.569   0.000   5.134
  121        0.912   1.501   0.000   2.413
  122        0.912   1.501   0.000   2.413
  123        0.913   1.503   0.000   2.416
  124        0.913   1.501   0.000   2.414
  125        0.913   1.501   0.000   2.414
  126        0.913   1.499   0.000   2.412
  127        0.913   1.504   0.000   2.417
  128        0.912   1.500   0.000   2.412
  129        0.916   1.509   0.000   2.425
  130        0.915   1.505   0.000   2.420
  131        0.913   1.504   0.000   2.416
  132        0.914   1.514   0.000   2.428
  133        0.914   1.507   0.000   2.421
  134        0.912   1.496   0.000   2.409
  135        0.913   1.503   0.000   2.417
  136        0.914   1.503   0.000   2.417
  137        0.912   1.501   0.000   2.413
  138        0.913   1.501   0.000   2.414
  139        0.912   1.501   0.000   2.413
  140        0.913   1.501   0.000   2.413
  141        0.913   1.502   0.000   2.414
  142        0.913   1.501   0.000   2.414
  143        0.912   1.501   0.000   2.413
  144        0.912   1.500   0.000   2.413
  145        0.064   6.012   0.000   6.075
--------------------------------------------------
tot        178.693 537.963 133.522 850.178



 magnetization (x)

# of ion       s       p       d       tot
------------------------------------------
    1        0.024   0.031   4.302   4.356
    2        0.024   0.031   4.299   4.355
    3        0.023   0.032   4.302   4.356
    4        0.023   0.031   4.304   4.358
    5        0.023   0.031   4.303   4.357
    6        0.024   0.031   4.302   4.356
    7        0.023   0.032   4.301   4.356
    8        0.023   0.031   4.303   4.357
    9        0.023   0.032   4.282   4.338
   10        0.024   0.032   4.294   4.349
   11        0.023   0.031   4.300   4.355
   12        0.023   0.023   3.729   3.775
   13        0.023   0.032   4.300   4.356
   14        0.024   0.031   4.303   4.358
   15        0.023   0.032   4.303   4.358
   16        0.025   0.031   4.301   4.356
   17        0.023   0.031   4.301   4.356
   18        0.023   0.031   4.303   4.358
   19        0.023   0.031   4.303   4.357
   20        0.023   0.031   4.304   4.358
   21        0.023   0.032   4.302   4.357
   22        0.023   0.031   4.303   4.357
   23        0.023   0.031   4.303   4.357
   24        0.024   0.031   4.302   4.357
   25        0.007   0.097   0.000   0.105
   26        0.007   0.095   0.000   0.102
   27        0.007   0.097   0.000   0.104
   28        0.007   0.095   0.000   0.102
   29        0.008   0.101   0.000   0.108
   30        0.008   0.105   0.000   0.113
   31        0.008   0.095   0.000   0.103
   32        0.008   0.097   0.000   0.105
   33        0.011   0.129   0.000   0.140
   34        0.011   0.123   0.000   0.134
   35        0.011   0.130   0.000   0.141
   36        0.011   0.124   0.000   0.135
   37        0.009   0.102   0.000   0.112
   38        0.011   0.126   0.000   0.137
   39        0.011   0.128   0.000   0.140
   40        0.011   0.126   0.000   0.137
   41        0.007   0.095   0.000   0.103
   42        0.007   0.095   0.000   0.103
   43        0.007   0.094   0.000   0.101
   44        0.007   0.097   0.000   0.104
   45        0.008   0.102   0.000   0.109
   46        0.008   0.103   0.000   0.111
   47        0.007   0.093   0.000   0.101
   48        0.008   0.099   0.000   0.106
   49        0.011   0.128   0.000   0.139
   50        0.011   0.131   0.000   0.142
   51        0.011   0.124   0.000   0.135
   52        0.011   0.124   0.000   0.135
   53        0.011   0.125   0.000   0.136
   54        0.011   0.128   0.000   0.139
   55        0.011   0.128   0.000   0.139
   56        0.011   0.131   0.000   0.142
   57        0.007   0.105   0.000   0.112
   58        0.006   0.083   0.000   0.089
   59        0.007   0.098   0.000   0.105
   60        0.003   0.023   0.000   0.026
   61        0.008   0.090   0.000   0.098
   62        0.008   0.113   0.000   0.121
   63        0.007   0.080   0.000   0.087
   64        0.003   0.040   0.000   0.044
   65        0.012   0.134   0.000   0.145
   66        0.011   0.119   0.000   0.130
   67        0.009   0.102   0.000   0.111
   68        0.009   0.089   0.000   0.098
   69        0.011   0.128   0.000   0.139
   70        0.010   0.096   0.000   0.106
   71        0.011   0.131   0.000   0.142
   72        0.010   0.104   0.000   0.114
   73        0.007   0.097   0.000   0.104
   74        0.007   0.088   0.000   0.095
   75        0.007   0.098   0.000   0.105
   76        0.007   0.093   0.000   0.100
   77        0.007   0.096   0.000   0.104
   78        0.008   0.105   0.000   0.113
   79        0.007   0.093   0.000   0.100
   80        0.007   0.098   0.000   0.105
   81        0.011   0.128   0.000   0.140
   82        0.011   0.125   0.000   0.136
   83        0.011   0.125   0.000   0.136
   84        0.011   0.130   0.000   0.141
   85        0.011   0.125   0.000   0.136
   86        0.011   0.128   0.000   0.139
   87        0.011   0.124   0.000   0.136
   88        0.011   0.124   0.000   0.135
   89        0.007   0.095   0.000   0.102
   90        0.007   0.096   0.000   0.103
   91        0.007   0.096   0.000   0.103
   92        0.007   0.095   0.000   0.102
   93        0.008   0.102   0.000   0.109
   94        0.008   0.100   0.000   0.108
   95        0.008   0.099   0.000   0.107
   96        0.008   0.096   0.000   0.104
   97        0.011   0.131   0.000   0.142
   98        0.011   0.127   0.000   0.138
   99        0.011   0.127   0.000   0.138
  100        0.011   0.125   0.000   0.136
  101        0.011   0.126   0.000   0.137
  102        0.011   0.123   0.000   0.134
  103        0.011   0.127   0.000   0.138
  104        0.011   0.128   0.000   0.139
  105        0.007   0.096   0.000   0.103
  106        0.007   0.096   0.000   0.103
  107        0.007   0.097   0.000   0.104
  108        0.007   0.097   0.000   0.105
  109        0.008   0.101   0.000   0.109
  110        0.008   0.101   0.000   0.108
  111        0.008   0.099   0.000   0.106
  112        0.008   0.099   0.000   0.107
  113        0.011   0.127   0.000   0.138
  114        0.011   0.127   0.000   0.138
  115        0.011   0.127   0.000   0.139
  116        0.011   0.126   0.000   0.137
  117        0.011   0.126   0.000   0.137
  118        0.011   0.123   0.000   0.133
  119        0.011   0.128   0.000   0.139
  120        0.011   0.128   0.000   0.139
  121        0.004   0.013   0.000   0.017
  122        0.004   0.013   0.000   0.017
  123        0.004   0.013   0.000   0.017
  124        0.004   0.013   0.000   0.017
  125        0.004   0.013   0.000   0.017
  126        0.004   0.013   0.000   0.016
  127        0.004   0.013   0.000   0.017
  128        0.004   0.013   0.000   0.016
  129        0.002   0.009   0.000   0.012
  130        0.003   0.011   0.000   0.015
  131        0.004   0.013   0.000   0.017
  132        0.004   0.013   0.000   0.018
  133        0.004   0.013   0.000   0.017
  134        0.003   0.012   0.000   0.015
  135        0.004   0.013   0.000   0.017
  136        0.003   0.010   0.000   0.013
  137        0.004   0.013   0.000   0.017
  138        0.004   0.013   0.000   0.017
  139        0.004   0.013   0.000   0.017
  140        0.004   0.013   0.000   0.016
  141        0.004   0.013   0.000   0.016
  142        0.004   0.013   0.000   0.017
  143        0.004   0.013   0.000   0.017
  144        0.004   0.013   0.000   0.016
  145        0.000   0.000   0.000   0.001
--------------------------------------------------
tot          1.523  11.513 102.649 115.685


 total amount of memory used by VASP MPI-rank0   264792. kBytes
=======================================================================

   base      :      30000. kBytes
   nonlr-proj:      30703. kBytes
   fftplans  :       9535. kBytes
   grid      :      26700. kBytes
   one-center:       1150. kBytes
   wavefun   :     166704. kBytes

  
  
 General timing and accounting informations for this job:
 ========================================================
  
                  Total CPU time used (sec):      192.008
                            User time (sec):      184.210
                          System time (sec):        7.798
                         Elapsed time (sec):      253.896
  
                   Maximum memory used (kb):      871704.
                   Average memory used (kb):          N/A
  
                          Minor page faults:       150346
                          Major page faults:           39
                 Voluntary context switches:       193751
