INCAR created by Atomic Simulation Environment
 ENCUT = 520.000000
 SIGMA = 0.050000
 TIME = 0.050000
 NUPDOWN = 119.000000
 EDIFF = 1.00e-06
 EDIFFG = -2.00e-02
 SYMPREC = 1.00e-07
 ALGO = all
 GGA = PE
 PREC = accurate
 IBRION = 2
 ISIF = 2
 ISMEAR = 0
 ISPIN = 2
 ISYM = 0
 KPAR = 2
 LMAXMIX = 4
 LORBIT = 12
 NELM = 300
 NELMIN = 8
 NSW = 1
 NCORE = 4
 LASPH = .TRUE.
 LCHARG = .TRUE.
 LDAU = .TRUE.
 LWAVE = .TRUE.
 LREAL = auto
 LDAUL = 2 -1 -1 -1
 LDAUU = 5.300 0.000 0.000 0.000
 LDAUJ = 0.000 0.000 0.000 0.000
 MAGMOM = 1*4.3567 1*4.3530 1*4.3533 1*4.3577 1*4.3570 1*4.3567 1*4.3537 1*4.3570 1*4.3450 1*4.3510 1*4.3517 1*3.7840 1*4.3570 1*4.3573 1*4.3533 1*4.3570 1*4.3563 2*4.3580 1*4.3573 2*4.3570 1*4.3580 1*4.3570 1*0.1040 1*0.0960 1*0.1047 1*0.1020 1*0.1080 1*0.1183 1*0.0953 1*0.1047 1*0.1403 1*0.1297 1*0.1423 1*0.1343 1*0.1160 1*0.1357 1*0.1407 1*0.1353 1*0.1030 1*0.1003 1*0.1010 1*0.1040 1*0.1087 1*0.1107 1*0.0993 1*0.1067 1*0.1390 1*0.1377 1*0.1357 1*0.1337 1*0.1367 1*0.1387 1*0.1383 1*0.1387 1*0.1110 1*0.0900 1*0.1060 1*0.0310 1*0.0970 1*0.1213 1*0.0887 1*0.0490 1*0.1423 1*0.1317 1*0.1170 1*0.0997 1*0.1417 1*0.1020 1*0.1417 1*0.1223 1*0.1050 1*0.0967 1*0.1027 1*0.0990 1*0.1050 1*0.1113 1*0.0987 1*0.1070 1*0.1387 2*0.1363 1*0.1383 1*0.1363 1*0.1377 1*0.1373 1*0.1360 1*0.1027 2*0.1030 1*0.1013 2*0.1080 1*0.1060 1*0.1043 1*0.1413 1*0.1387 1*0.1377 1*0.1353 1*0.1373 1*0.1337 1*0.1397 1*0.1393 2*0.1030 2*0.1040 1*0.1083 1*0.1090 1*0.1060 1*0.1073 1*0.1377 1*0.1387 2*0.1383 1*0.1377 1*0.1333 1*0.1390 1*0.1393 2*0.0163 1*0.0170 2*0.0167 1*0.0157 1*0.0170 1*0.0160 1*0.0150 1*0.0157 3*0.0170 1*0.0153 1*0.0170 1*0.0150 1*0.0167 2*0.0170 2*0.0163 2*0.0170 1*0.0160 1*0.0010
