 vasp.6.4.0 14Feb23 (build Mar 11 2024 14:58:30) complex                         
 executed on             epyc9004 date 2024.12.14  22:09:05
 running  192 mpi-ranks, on    2 nodes
 distrk:  each k-point on   96 cores,    2 groups
 distr:  one band on NCORE=   4 cores,   24 groups


--------------------------------------------------------------------------------------------------------


 INCAR:
   ENCUT = 520.000000
   SIGMA = 0.050000
   TIME = 0.050000
   NUPDOWN = 119.000000
   EDIFF = 1.00e-06
   EDIFFG = -2.00e-02
   SYMPREC = 1.00e-07
   ALGO = all
   GGA = PE
   PREC = accurate
   IBRION = 2
   ISIF = 2
   ISMEAR = 0
   ISPIN = 2
   ISYM = 0
   KPAR = 2
   LMAXMIX = 4
   LORBIT = 12
   NELM = 300
   NELMIN = 8
   NSW = 1
   NCORE = 4
   LASPH = .TRUE.
   LCHARG = .TRUE.
   LDAU = .TRUE.
   LWAVE = .TRUE.
   LREAL = auto
   LDAUL = 2 -1 -1 -1
   LDAUU = 5.300 0.000 0.000 0.000
   LDAUJ = 0.000 0.000 0.000 0.000
   MAGMOM = 1*4.3567 1*4.3530 1*4.3533 1*4.3577 1*4.3570 1*4.3567 1*4.3537 1*4.3570 1*4.3450 1*4.3510 1*4.3517 1*3.7840 1*4.3570 1*4.3573 1*4.3533 1*4.3570 1*4.3563 2*4.3580 1*4.3573 2*4.3570 1*4.3580 1*4.3570 1*0.1040 1*0.0960 1*0.1047 1*0.1020 1*0.1080 1*0.1183 1*0.0953 1*0.1047 1*0.1403 1*0.1297 1*0.1423 1*0.1343 1*0.1160 1*0.1357 1*0.1407 1*0.1353 1*0.1030 1*0.1003 1*0.1010 1*0.1040 1*0.1087 1*0.1107 1*0.0993 1*0.1067 1*0.1390 1*0.1377 1*0.1357 1*0.1337 1*0.1367 1*0.1387 1*0.1383 1*0.1387 1*0.1110 1*0.0900 1*0.1060 1*0.0310 1*0.0970 1*0.1213 1*0.0887 1*0.0490 1*0.1423 1*0.1317 1*0.1170 1*0.0997 1*0.1417 1*0.1020 1*0.1417 1*0.1223 1*0.1050 1*0.0967 1*0.1027 1*0.0990 1*0.1050 1*0.1113 1*0.0987 1*0.1070 1*0.1387 2*0.1363 1*0.1383 1*0.1363 1*0.1377 1*0.1373 1*0.1360 1*0.1027 2*0.1030 1*0.1013 2*0.1080 1*0.1060 1*0.1043 1*0.1413 1*0.1387 1*0.1377 1*0.1353 1*0.1373 1*0.1337 1*0.1397 1*0.1393 2*0.1030 2*0.1040 1*0.1083 1*0.1090 1*0.1060 1*0.1073 1*0.1377 1*0.1387 2*0.1383 1*0.1377 1*0.1333 1*0.1390 1*0.1393 2*0.0163 1*0.0170 2*0.0167 1*0.0157 1*0.0170 1*0.0160 1*0.0150 1*0.0157 3*0.0170 1*0.0153 1*0.0170 1*0.0150 1*0.0167 2*0.0170 2*0.0163 2*0.0170 1*0.0160 1*0.0010

 POTCAR:    PAW_PBE Fe_pv 02Aug2007               
 POTCAR:    PAW_PBE O 08Apr2002                   
 POTCAR:    PAW_PBE P 06Sep2000                   
 POTCAR:    PAW_PBE Na_pv 19Sep2006               
 -----------------------------------------------------------------------------
|                                                                             |
|           W    W    AA    RRRRR   N    N  II  N    N   GGGG   !!!           |
|           W    W   A  A   R    R  NN   N  II  NN   N  G    G  !!!           |
|           W    W  A    A  R    R  N N  N  II  N N  N  G       !!!           |
|           W WW W  AAAAAA  RRRRR   N  N N  II  N  N N  G  GGG   !            |
|           WW  WW  A    A  R   R   N   NN  II  N   NN  G    G                |
|           W    W  A    A  R    R  N    N  II  N    N   GGGG   !!!           |
|                                                                             |
|     For optimal performance we recommend to set                             |
|       NCORE = 2 up to number-of-cores-per-socket                            |
|     NCORE specifies how many cores store one orbital (NPAR=cpu/NCORE).      |
|     This setting can greatly improve the performance of VASP for DFT.       |
|     The default, NCORE=1 might be grossly inefficient on modern             |
|     multi-core architectures or massively parallel machines. Do your        |
|     own testing! More info at https://www.vasp.at/wiki/index.php/NCORE      |
|     Unfortunately you need to use the default for GW and RPA                |
|     calculations (for HF NCORE is supported but not extensively tested      |
|     yet).                                                                   |
|                                                                             |
 -----------------------------------------------------------------------------

 POTCAR:    PAW_PBE Fe_pv 02Aug2007               
   VRHFIN =Fe:  3pd7s1                                                                              
   LEXCH  = PE                                                                                      
   EATOM  =  2457.4239 eV,  180.6156 Ry                                                             
                                                                                                    
   TITEL  = PAW_PBE Fe_pv 02Aug2007                                                                 
   LULTRA =        F    use ultrasoft PP ?                                                          
   IUNSCR =        1    unscreen: 0-lin 1-nonlin 2-no                                               
   RPACOR =    1.750    partial core radius                                                         
   POMASS =   55.847; ZVAL   =   14.000    mass and valenz                                          
   RCORE  =    2.200    outmost cutoff radius                                                       
   RWIGS  =    2.200; RWIGS  =    1.164    wigner-seitz radius (au A)                               
   ENMAX  =  293.238; ENMIN  =  219.928 eV                                                          
   ICORE  =        3    local potential                                                             
   LCOR   =        T    correct aug charges                                                         
   LPAW   =        T    paw PP                                                                      
   EAUG   =  578.342                                                                                
   DEXC   =    0.000                                                                                
   RMAX   =    2.249    core radius for proj-oper                                                   
   RAUG   =    1.300    factor for augmentation sphere                                              
   RDEP   =    2.296    radius for radial grids                                                     
   RDEPT  =    1.766    core radius for aug-charge                                                  
                                                                                                    
   Atomic configuration                                                                             
    8 entries                                                                                       
     n  l   j            E        occ.                                                              
     1  0  0.50     -6993.8440   2.0000                                                             
     2  0  0.50      -814.6047   2.0000                                                             
     2  1  1.50      -693.3689   6.0000                                                             
     3  0  0.50       -89.4732   2.0000                                                             
     3  1  1.50       -55.6373   6.0000                                                             
     3  2  2.50        -3.8151   7.0000                                                             
     4  0  0.50        -4.2551   1.0000                                                             
     4  3  2.50        -1.3606   0.0000                                                             
   Description                                                                                      
     l       E           TYP  RCUT    TYP  RCUT                                                     
     1    -55.6372668     23  2.000                                                                 
     1     -5.4423304     23  2.000                                                                 
     2     -3.8151096     23  2.200                                                                 
     2     -5.1756922     23  2.200                                                                 
     0     -4.2550951     23  2.200                                                                 
     0     27.2116520     23  2.200                                                                 
     3     -1.3605826     23  2.200                                                                 
  local pseudopotential read in
  partial core-charges read in
  partial kinetic energy density read in
  atomic valenz-charges read in
  non local Contribution for L=           1  read in
    real space projection operators read in
  non local Contribution for L=           1  read in
    real space projection operators read in
  non local Contribution for L=           2  read in
    real space projection operators read in
  non local Contribution for L=           2  read in
    real space projection operators read in
  non local Contribution for L=           0  read in
    real space projection operators read in
  non local Contribution for L=           0  read in
    real space projection operators read in
    PAW grid and wavefunctions read in

   number of l-projection  operators is LMAX  =           6
   number of lm-projection operators is LMMAX =          18

 POTCAR:    PAW_PBE O 08Apr2002                   
   VRHFIN =O: s2p4                                                                                  
   LEXCH  = PE                                                                                      
   EATOM  =   432.3788 eV,   31.7789 Ry                                                             
                                                                                                    
   TITEL  = PAW_PBE O 08Apr2002                                                                     
   LULTRA =        F    use ultrasoft PP ?                                                          
   IUNSCR =        1    unscreen: 0-lin 1-nonlin 2-no                                               
   RPACOR =    1.200    partial core radius                                                         
   POMASS =   16.000; ZVAL   =    6.000    mass and valenz                                          
   RCORE  =    1.520    outmost cutoff radius                                                       
   RWIGS  =    1.550; RWIGS  =    0.820    wigner-seitz radius (au A)                               
   ENMAX  =  400.000; ENMIN  =  300.000 eV                                                          
   ICORE  =        2    local potential                                                             
   LCOR   =        T    correct aug charges                                                         
   LPAW   =        T    paw PP                                                                      
   EAUG   =  605.392                                                                                
   DEXC   =    0.000                                                                                
   RMAX   =    1.553    core radius for proj-oper                                                   
   RAUG   =    1.300    factor for augmentation sphere                                              
   RDEP   =    1.550    radius for radial grids                                                     
   RDEPT  =    1.329    core radius for aug-charge                                                  
                                                                                                    
   Atomic configuration                                                                             
    4 entries                                                                                       
     n  l   j            E        occ.                                                              
     1  0  0.50      -514.6923   2.0000                                                             
     2  0  0.50       -23.9615   2.0000                                                             
     2  1  0.50        -9.0305   4.0000                                                             
     3  2  1.50        -9.5241   0.0000                                                             
   Description                                                                                      
     l       E           TYP  RCUT    TYP  RCUT                                                     
     0    -23.9615318     23  1.200                                                                 
     0     -9.5240782     23  1.200                                                                 
     1     -9.0304911     23  1.520                                                                 
     1      8.1634956     23  1.520                                                                 
     2     -9.5240782      7  1.500                                                                 
  local pseudopotential read in
  partial core-charges read in
  partial kinetic energy density read in
  kinetic energy density of atom read in
  atomic valenz-charges read in
  non local Contribution for L=           0  read in
    real space projection operators read in
  non local Contribution for L=           0  read in
    real space projection operators read in
  non local Contribution for L=           1  read in
    real space projection operators read in
  non local Contribution for L=           1  read in
    real space projection operators read in
    PAW grid and wavefunctions read in

   number of l-projection  operators is LMAX  =           4
   number of lm-projection operators is LMMAX =           8

 POTCAR:    PAW_PBE P 06Sep2000                   
   VRHFIN =P : s2p3                                                                                 
   LEXCH  = PE                                                                                      
   EATOM  =   176.0430 eV,   12.9388 Ry                                                             
                                                                                                    
   TITEL  = PAW_PBE P 06Sep2000                                                                     
   LULTRA =        F    use ultrasoft PP ?                                                          
   IUNSCR =        1    unscreen: 0-lin 1-nonlin 2-no                                               
   RPACOR =    1.500    partial core radius                                                         
   POMASS =   30.974; ZVAL   =    5.000    mass and valenz                                          
   RCORE  =    1.900    outmost cutoff radius                                                       
   RWIGS  =    2.330; RWIGS  =    1.233    wigner-seitz radius (au A)                               
   ENMAX  =  255.040; ENMIN  =  191.280 eV                                                          
   ICORE  =        2    local potential                                                             
   LCOR   =        T    correct aug charges                                                         
   LPAW   =        T    paw PP                                                                      
   EAUG   =  342.924                                                                                
   DEXC   =    0.000                                                                                
   RMAX   =    1.935    core radius for proj-oper                                                   
   RAUG   =    1.300    factor for augmentation sphere                                              
   RDEP   =    1.931    radius for radial grids                                                     
   RDEPT  =    1.794    core radius for aug-charge                                                  
                                                                                                    
   Atomic configuration                                                                             
    6 entries                                                                                       
     n  l   j            E        occ.                                                              
     1  0  0.50     -2084.0982   2.0000                                                             
     2  0  0.50      -173.9859   2.0000                                                             
     2  1  1.50      -124.4865   6.0000                                                             
     3  0  0.50       -13.9692   2.0000                                                             
     3  1  0.50        -5.5067   3.0000                                                             
     3  2  1.50        -5.4423   0.0000                                                             
   Description                                                                                      
     l       E           TYP  RCUT    TYP  RCUT                                                     
     0    -13.9691527     23  1.900                                                                 
     0    -11.7794650     23  1.900                                                                 
     1     -5.5066937     23  1.900                                                                 
     1     -0.2556953     23  1.900                                                                 
     2     -5.4423304     23  1.900                                                                 
  local pseudopotential read in
  partial core-charges read in
  partial kinetic energy density read in
  atomic valenz-charges read in
  non local Contribution for L=           0  read in
    real space projection operators read in
  non local Contribution for L=           0  read in
    real space projection operators read in
  non local Contribution for L=           1  read in
    real space projection operators read in
  non local Contribution for L=           1  read in
    real space projection operators read in
    PAW grid and wavefunctions read in

   number of l-projection  operators is LMAX  =           4
   number of lm-projection operators is LMMAX =           8

 POTCAR:    PAW_PBE Na_pv 19Sep2006               
   VRHFIN =Na: p6s1                                                                                 
   LEXCH  = PE                                                                                      
   EATOM  =   766.0439 eV,   56.3026 Ry                                                             
                                                                                                    
   TITEL  = PAW_PBE Na_pv 19Sep2006                                                                 
   LULTRA =        F    use ultrasoft PP ?                                                          
   IUNSCR =        1    unscreen: 0-lin 1-nonlin 2-no                                               
   RPACOR =    1.800    partial core radius                                                         
   POMASS =   22.990; ZVAL   =    7.000    mass and valenz                                          
   RCORE  =    2.200    outmost cutoff radius                                                       
   RWIGS  =    2.200; RWIGS  =    1.164    wigner-seitz radius (au A)                               
   ENMAX  =  259.561; ENMIN  =  194.671 eV                                                          
   ICORE  =        2    local potential                                                             
   LCOR   =        T    correct aug charges                                                         
   LPAW   =        T    paw PP                                                                      
   EAUG   =  368.056                                                                                
   DEXC   =    0.000                                                                                
   RMAX   =    2.245    core radius for proj-oper                                                   
   RAUG   =    1.300    factor for augmentation sphere                                              
   RDEP   =    2.259    radius for radial grids                                                     
   RDEPT  =    1.738    core radius for aug-charge                                                  
                                                                                                    
   Atomic configuration                                                                             
    5 entries                                                                                       
     n  l   j            E        occ.                                                              
     1  0  0.50     -1033.6933   2.0000                                                             
     2  0  0.50       -56.7526   2.0000                                                             
     2  1  1.50       -28.6721   6.0000                                                             
     3  0  0.50        -2.7440   1.0000                                                             
     3  2  1.50        -1.3606   0.0000                                                             
   Description                                                                                      
     l       E           TYP  RCUT    TYP  RCUT                                                     
     1    -28.6720912     23  2.000                                                                 
     1      6.8029130     23  2.000                                                                 
     0     -2.7439560     23  2.200                                                                 
     0     34.0145650     23  2.200                                                                 
     2     -1.3605826     23  2.200                                                                 
  local pseudopotential read in
  partial core-charges read in
  partial kinetic energy density read in
  atomic valenz-charges read in
  non local Contribution for L=           1  read in
    real space projection operators read in
  non local Contribution for L=           1  read in
    real space projection operators read in
  non local Contribution for L=           0  read in
    real space projection operators read in
  non local Contribution for L=           0  read in
    real space projection operators read in
    PAW grid and wavefunctions read in

   number of l-projection  operators is LMAX  =           4
   number of lm-projection operators is LMMAX =           8

 Optimization of the real space projectors (new method)

 maximal supplied QI-value         = 17.01
 optimisation between [QCUT,QGAM] = [ 11.57, 23.30] = [ 37.45,152.03] Ry 
 Optimized for a Real-space Cutoff    1.45 Angstroem

   l    n(q)    QCUT    max X(q) W(low)/X(q) W(high)/X(q)  e(spline) 
   1     10    11.565     4.267    0.91E-04    0.15E-03    0.13E-06
   1     10    11.565     5.750    0.14E-03    0.22E-03    0.20E-06
   2      9    11.565    53.656    0.13E-03    0.57E-04    0.16E-06
   2      9    11.565    49.521    0.13E-03    0.59E-04    0.16E-06
   0     10    11.565    31.246    0.61E-04    0.74E-05    0.89E-07
   0     10    11.565    12.201    0.44E-04    0.68E-05    0.74E-07
 Optimization of the real space projectors (new method)

 maximal supplied QI-value         = 24.76
 optimisation between [QCUT,QGAM] = [ 11.64, 23.27] = [ 37.91,151.63] Ry 
 Optimized for a Real-space Cutoff    1.14 Angstroem

   l    n(q)    QCUT    max X(q) W(low)/X(q) W(high)/X(q)  e(spline) 
   0      8    11.635    20.381    0.10E-03    0.33E-03    0.24E-06
   0      8    11.635    15.268    0.11E-03    0.35E-03    0.26E-06
   1      7    11.635     5.964    0.24E-03    0.31E-03    0.30E-06
   1      7    11.635     5.382    0.22E-03    0.25E-03    0.26E-06
 Optimization of the real space projectors (new method)

 maximal supplied QI-value         = 19.84
 optimisation between [QCUT,QGAM] = [ 11.51, 23.22] = [ 37.09,150.92] Ry 
 Optimized for a Real-space Cutoff    1.21 Angstroem

   l    n(q)    QCUT    max X(q) W(low)/X(q) W(high)/X(q)  e(spline) 
   0      8    11.508   160.924    0.96E-04    0.17E-03    0.52E-07
   0      8    11.508   130.086    0.95E-04    0.17E-03    0.51E-07
   1      8    11.508    74.434    0.16E-03    0.74E-04    0.91E-07
   1      8    11.508    49.120    0.16E-03    0.71E-04    0.89E-07
 Optimization of the real space projectors (new method)

 maximal supplied QI-value         = 17.01
 optimisation between [QCUT,QGAM] = [ 11.57, 23.30] = [ 37.45,152.03] Ry 
 Optimized for a Real-space Cutoff    1.45 Angstroem

   l    n(q)    QCUT    max X(q) W(low)/X(q) W(high)/X(q)  e(spline) 
   1     10    11.565     4.940    0.87E-04    0.13E-03    0.13E-06
   1     10    11.565     6.253    0.13E-03    0.19E-03    0.20E-06
   0     10    11.565    37.438    0.53E-04    0.73E-05    0.79E-07
   0     10    11.565     9.606    0.27E-04    0.60E-05    0.56E-07
  PAW_PBE Fe_pv 02Aug2007               :
 energy of atom  1       EATOM=-2457.4239
 kinetic energy error for atom=    0.0062 (will be added to EATOM!!)
  PAW_PBE O 08Apr2002                   :
 energy of atom  2       EATOM= -432.3788
 kinetic energy error for atom=    0.0208 (will be added to EATOM!!)
  PAW_PBE P 06Sep2000                   :
 energy of atom  3       EATOM= -176.0430
 kinetic energy error for atom=    0.0011 (will be added to EATOM!!)
  PAW_PBE Na_pv 19Sep2006               :
 energy of atom  4       EATOM= -766.0439
 kinetic energy error for atom=    0.0019 (will be added to EATOM!!)


 POSCAR: Fe O  P  Na
  positions in cartesian coordinates
  No initial velocities read in
 exchange correlation table for  LEXCH =        8
   RHO(1)=    0.500       N(1)  =     2000
   RHO(2)=  100.500       N(2)  =     4000



--------------------------------------------------------------------------------------------------------


 ion  position               nearest neighbor table
   1  0.275  0.084  0.478-  25 1.93  45 1.94  98 2.08  40 2.10  55 2.16  49 2.17 125 2.83
   2  0.227  0.248  0.227-  30 1.93  26 1.93  39 2.07  65 2.07  40 2.13  34 2.26 122 2.84
   3  0.726  0.249  0.021-  27 1.94  47 1.97  70 2.01  36 2.08  51 2.16  53 2.19 127 2.82
   4  0.775  0.082  0.271-  28 1.94  32 1.96  35 2.03 101 2.07  38 2.17  36 2.17 124 2.83
   5  0.275  0.082  0.978-  41 1.93  29 1.94 114 2.07  56 2.07  39 2.16  33 2.16 121 2.82
   6  0.225  0.247  0.730-  42 1.93  46 1.94  55 2.06  81 2.10  56 2.14  50 2.15 126 2.81
   7  0.729  0.250  0.521-  43 1.93  31 1.96  37 2.06  86 2.09  52 2.09  35 2.22 123 2.79
   8  0.774  0.083  0.771-  44 1.93  48 1.95  51 2.08 117 2.08  52 2.15  54 2.17 128 2.82
   9  0.269  0.415  0.492-  57 1.92  77 1.95  81 2.07  87 2.11  34 2.11  72 2.15 133 2.72
  10  0.224  0.587  0.229-  62 1.92  58 1.96  97 2.04  71 2.08  66 2.17  72 2.22 130 2.86
  11  0.724  0.583  0.021-  59 1.93  79 1.96  68 2.05 102 2.08  85 2.17  83 2.17 135 2.82
  12  0.785  0.415  0.273-  64 1.98  60 2.02  37 2.17  67 2.19  70 2.32  68 2.36
  13  0.274  0.415  0.974-  73 1.92  61 1.93  50 2.07  88 2.08  65 2.15  71 2.18 129 2.82
  14  0.224  0.586  0.733-  74 1.93  78 1.93 113 2.07  87 2.10  82 2.14  88 2.17 134 2.81
  15  0.727  0.583  0.522-  75 1.93  63 1.98  67 2.06  84 2.08 118 2.09  69 2.22 131 2.79
  16  0.779  0.416  0.767-  76 1.89  80 1.92  53 2.09  83 2.10  86 2.15  84 2.15 136 2.79
  17  0.274  0.752  0.479-  89 1.93 109 1.95 104 2.07  66 2.08 119 2.15 113 2.18 141 2.82
  18  0.226  0.917  0.229-  90 1.93  94 1.95  33 2.06 103 2.07 104 2.16  98 2.17 138 2.82
  19  0.725  0.917  0.021-  91 1.93 111 1.95  38 2.07 100 2.07 115 2.17 117 2.17 143 2.82
  20  0.774  0.751  0.271-  92 1.94  96 1.96  69 2.03  99 2.07 100 2.16 102 2.18 140 2.82
  21  0.275  0.752  0.979- 105 1.93  93 1.94 120 2.06  82 2.07 103 2.16  97 2.17 137 2.82
  22  0.225  0.917  0.728- 106 1.93 110 1.95  49 2.07 119 2.08 114 2.16 120 2.17 142 2.83
  23  0.725  0.917  0.521- 107 1.93  95 1.95  54 2.07 116 2.08 101 2.17  99 2.17 139 2.83
  24  0.774  0.750  0.771- 108 1.93 112 1.95 115 2.08  85 2.08 116 2.17 118 2.17 144 2.82
  25  0.123  0.083  0.356- 121 1.53   1 1.93
  26  0.381  0.249  0.106- 126 1.53   2 1.93
  27  0.877  0.249  0.145- 123 1.53   3 1.94
  28  0.621  0.083  0.392- 128 1.53   4 1.94
  29  0.445  0.082  0.076- 124 1.53   5 1.94
  30  0.058  0.248  0.324- 123 1.53   2 1.93
  31  0.556  0.249  0.426- 122 1.52   7 1.96
  32  0.946  0.082  0.172- 121 1.52   4 1.96
  33  0.170  0.015  0.129- 121 1.58  18 2.06   5 2.16
  34  0.337  0.321  0.380- 122 1.59   9 2.11   2 2.26
  35  0.835  0.177  0.371- 123 1.58   4 2.03   7 2.22
  36  0.669  0.150  0.120- 124 1.58   3 2.08   4 2.17
  37  0.835  0.312  0.379- 123 1.56   7 2.06  12 2.17
  38  0.669  0.015  0.120- 124 1.58  19 2.07   4 2.17
  39  0.170  0.150  0.127- 121 1.58   2 2.07   5 2.16
  40  0.330  0.184  0.379- 122 1.58   1 2.10   2 2.13
  41  0.122  0.082  0.857- 125 1.53   5 1.93
  42  0.377  0.251  0.607- 122 1.53   6 1.93
  43  0.881  0.248  0.643- 127 1.52   7 1.93
  44  0.621  0.083  0.892- 124 1.53   8 1.93
  45  0.445  0.084  0.575- 128 1.53   1 1.94
  46  0.056  0.248  0.828- 127 1.53   6 1.94
  47  0.555  0.248  0.920- 126 1.52   3 1.97
  48  0.945  0.083  0.674- 125 1.53   8 1.95
  49  0.169  0.015  0.628- 125 1.58  22 2.07   1 2.17
  50  0.329  0.316  0.878- 126 1.59  13 2.07   6 2.15
  51  0.831  0.181  0.871- 127 1.58   8 2.08   3 2.16
  52  0.671  0.150  0.620- 128 1.58   7 2.09   8 2.15
  53  0.833  0.317  0.870- 127 1.58  16 2.09   3 2.19
  54  0.668  0.015  0.620- 128 1.58  23 2.07   8 2.17
  55  0.169  0.150  0.629- 125 1.58   6 2.06   1 2.16
  56  0.331  0.181  0.878- 126 1.58   5 2.07   6 2.14
  57  0.127  0.416  0.360- 129 1.53   9 1.92
  58  0.382  0.582  0.110- 134 1.54  10 1.96
  59  0.874  0.583  0.145- 131 1.53  11 1.93
  60  0.622  0.415  0.396- 136 1.52  12 2.02 145 2.15
  61  0.449  0.412  0.058- 132 1.55  13 1.93 145 2.12
  62  0.055  0.586  0.324- 131 1.53  10 1.92
  63  0.552  0.582  0.426- 130 1.53  15 1.98
  64  0.956  0.418  0.169- 129 1.50  12 1.98
  65  0.179  0.349  0.132- 129 1.59   2 2.07  13 2.15
  66  0.330  0.652  0.381- 130 1.58  17 2.08  10 2.17
  67  0.832  0.521  0.379- 131 1.56  15 2.06  12 2.19
  68  0.661  0.485  0.111- 132 1.57  11 2.05  12 2.36
  69  0.833  0.656  0.370- 131 1.58  20 2.03  15 2.22
  70  0.670  0.347  0.108- 132 1.56   3 2.01  12 2.32
  71  0.183  0.484  0.135- 129 1.59  10 2.08  13 2.18
  72  0.325  0.517  0.388- 130 1.59   9 2.15 145 2.18  10 2.22
  73  0.116  0.416  0.861- 133 1.52  13 1.92
  74  0.378  0.586  0.613- 130 1.52  14 1.93
  75  0.880  0.585  0.644- 135 1.52  15 1.93
  76  0.624  0.417  0.879- 132 1.52  16 1.89
  77  0.446  0.418  0.578- 136 1.54   9 1.95
  78  0.054  0.585  0.829- 135 1.53  14 1.93
  79  0.553  0.585  0.921- 134 1.52  11 1.96
  80  0.946  0.417  0.670- 133 1.52  16 1.92
  81  0.169  0.349  0.634- 133 1.58   9 2.07   6 2.10
  82  0.328  0.651  0.883- 134 1.58  21 2.07  14 2.14
  83  0.831  0.516  0.870- 135 1.58  16 2.10  11 2.17
  84  0.672  0.484  0.621- 136 1.58  15 2.08  16 2.15
  85  0.830  0.652  0.872- 135 1.58  24 2.08  11 2.17
  86  0.671  0.348  0.622- 136 1.58   7 2.09  16 2.15
  87  0.170  0.485  0.636- 133 1.58  14 2.10   9 2.11
  88  0.329  0.516  0.881- 134 1.58  13 2.08  14 2.17
  89  0.122  0.751  0.357- 137 1.53  17 1.93
  90  0.379  0.917  0.107- 142 1.53  18 1.93
  91  0.878  0.917  0.142- 139 1.53  19 1.93
  92  0.620  0.751  0.392- 144 1.53  20 1.94
  93  0.445  0.750  0.076- 140 1.53  21 1.94
  94  0.055  0.917  0.325- 139 1.53  18 1.95
  95  0.555  0.917  0.424- 138 1.53  23 1.95
  96  0.946  0.751  0.172- 137 1.52  20 1.96
  97  0.170  0.683  0.129- 137 1.59  10 2.04  21 2.17
  98  0.331  0.985  0.379- 138 1.58   1 2.08  18 2.17
  99  0.831  0.849  0.371- 139 1.58  20 2.07  23 2.17
 100  0.669  0.818  0.120- 140 1.58  19 2.07  20 2.16
 101  0.831  0.984  0.371- 139 1.58   4 2.07  23 2.17
 102  0.669  0.683  0.120- 140 1.58  11 2.08  20 2.18
 103  0.170  0.819  0.129- 137 1.58  18 2.07  21 2.16
 104  0.330  0.849  0.379- 138 1.58  17 2.07  18 2.16
 105  0.122  0.751  0.858- 141 1.53  21 1.93
 106  0.378  0.917  0.607- 138 1.53  22 1.93
 107  0.878  0.917  0.642- 143 1.53  23 1.93
 108  0.621  0.751  0.892- 140 1.53  24 1.93
 109  0.445  0.750  0.576- 144 1.53  17 1.95
 110  0.055  0.917  0.825- 143 1.53  22 1.95
 111  0.555  0.917  0.923- 142 1.53  19 1.95
 112  0.945  0.751  0.674- 141 1.53  24 1.95
 113  0.168  0.683  0.630- 141 1.58  14 2.07  17 2.18
 114  0.331  0.984  0.879- 142 1.58   5 2.07  22 2.16
 115  0.830  0.849  0.870- 143 1.58  24 2.08  19 2.17
 116  0.669  0.818  0.620- 144 1.58  23 2.08  24 2.17
 117  0.830  0.984  0.870- 143 1.58   8 2.08  19 2.17
 118  0.669  0.683  0.619- 144 1.58  15 2.09  24 2.17
 119  0.169  0.818  0.629- 141 1.58  22 2.08  17 2.15
 120  0.331  0.849  0.879- 142 1.58  21 2.06  22 2.17
 121  0.096  0.082  0.202-  32 1.52  25 1.53  33 1.58  39 1.58   5 2.82
 122  0.406  0.251  0.454-  31 1.52  42 1.53  40 1.58  34 1.59   2 2.84
 123  0.906  0.247  0.299-  27 1.53  30 1.53  37 1.56  35 1.58   7 2.79
 124  0.596  0.083  0.046-  44 1.53  29 1.53  36 1.58  38 1.58   4 2.83
 125  0.095  0.082  0.703-  41 1.53  48 1.53  49 1.58  55 1.58   1 2.83
 126  0.405  0.249  0.952-  47 1.52  26 1.53  56 1.58  50 1.59   6 2.81
 127  0.905  0.249  0.797-  43 1.52  46 1.53  53 1.58  51 1.58   3 2.82
 128  0.596  0.083  0.546-  28 1.53  45 1.53  52 1.58  54 1.58   8 2.82
 129  0.103  0.417  0.205-  64 1.50  57 1.53  65 1.59  71 1.59  13 2.82
 130  0.402  0.586  0.459-  74 1.52  63 1.53  66 1.58  72 1.59  10 2.86
 131  0.903  0.586  0.299-  59 1.53  62 1.53  67 1.56  69 1.58  15 2.79
 132  0.603  0.415  0.033-  76 1.52  61 1.55  70 1.56  68 1.57 145 2.77
 133  0.094  0.417  0.707-  80 1.52  73 1.52  87 1.58  81 1.58   9 2.72
 134  0.404  0.584  0.955-  79 1.52  58 1.54  82 1.58  88 1.58  14 2.81
 135  0.904  0.584  0.798-  75 1.52  78 1.53  83 1.58  85 1.58  11 2.82
 136  0.598  0.416  0.549-  60 1.52  77 1.54  86 1.58  84 1.58  16 2.79
 137  0.096  0.751  0.203-  96 1.52  89 1.53 103 1.58  97 1.59  21 2.82
 138  0.404  0.917  0.453- 106 1.53  95 1.53  98 1.58 104 1.58  18 2.82
 139  0.904  0.917  0.296-  91 1.53  94 1.53 101 1.58  99 1.58  23 2.83
 140  0.596  0.750  0.046- 108 1.53  93 1.53 102 1.58 100 1.58  20 2.82
 141  0.095  0.751  0.704- 112 1.53 105 1.53 113 1.58 119 1.58  17 2.82
 142  0.405  0.917  0.953-  90 1.53 111 1.53 114 1.58 120 1.58  22 2.83
 143  0.904  0.917  0.796- 107 1.53 110 1.53 117 1.58 115 1.58  19 2.82
 144  0.596  0.750  0.546-  92 1.53 109 1.53 118 1.58 116 1.58  24 2.82
 145  0.456  0.444  0.267-  61 2.12  60 2.15  72 2.18 132 2.77


IMPORTANT INFORMATION: All symmetrisations will be switched off!
NOSYMM: (Re-)initialisation of all symmetry stuff for point group C_1.


----------------------------------------------------------------------------------------

                                     Primitive cell                                     

  volume of cell :    1723.3780

  direct lattice vectors                    reciprocal lattice vectors
     9.962489075 -0.000069663 -0.000154526     0.100376522  0.000000553 -0.000000819
    -0.000097698 17.717656860 -0.000226836     0.000000395  0.056440872 -0.000000631
     0.000079674  0.000109170  9.763519320     0.000001589  0.000001311  0.102422084

  length of vectors
     9.962489076 17.717656862  9.763519321     0.100376522  0.056440872  0.102422084

  position of ions in fractional coordinates (direct lattice)
     0.274894154  0.083551498  0.478173850
     0.226686504  0.248082189  0.226943014
     0.725710830  0.248888643  0.020753490
     0.775105701  0.082351089  0.270774298
     0.274997019  0.082375671  0.978030436
     0.225255795  0.247458479  0.730177564
     0.729030420  0.249675359  0.520957134
     0.774046166  0.083156287  0.770659975
     0.269296529  0.415038950  0.492378009
     0.223802872  0.586669959  0.229037031
     0.723743596  0.583095962  0.021012640
     0.785313231  0.415313018  0.273013631
     0.273639157  0.415233536  0.974207033
     0.223926723  0.585646956  0.732774319
     0.727412677  0.583194767  0.521544200
     0.778987001  0.416246058  0.767185212
     0.274115160  0.751711154  0.479385913
     0.225933998  0.917029256  0.228507211
     0.725447240  0.916687822  0.020846723
     0.774440275  0.751157585  0.270680611
     0.274758953  0.751516152  0.978721808
     0.225164458  0.916985617  0.728435023
     0.725200410  0.916809372  0.521156723
     0.773634666  0.750273499  0.770912972
     0.123001030  0.083129170  0.356018004
     0.380514084  0.248727958  0.106026348
     0.877041454  0.248758425  0.145066244
     0.621023246  0.082566839  0.391603310
     0.445125295  0.082495033  0.075535139
     0.057664071  0.247540609  0.323510912
     0.556220282  0.248980517  0.425577006
     0.946051950  0.081693855  0.172061317
     0.170395789  0.014794344  0.128538592
     0.337008002  0.320745654  0.379669894
     0.835309729  0.176990655  0.370692004
     0.668917639  0.150355044  0.120300690
     0.834951687  0.311709314  0.379209522
     0.669200560  0.014901632  0.120012921
     0.170097562  0.150041297  0.127415830
     0.329774366  0.184273005  0.378985621
     0.121825848  0.082370737  0.856815181
     0.376770106  0.250903106  0.607144281
     0.881157538  0.248326813  0.643382827
     0.621377443  0.082744515  0.892022340
     0.445150137  0.084178409  0.575052383
     0.056001685  0.248349086  0.827941784
     0.554834754  0.248197244  0.919770193
     0.945004854  0.082549147  0.673765097
     0.169226375  0.015061632  0.628238007
     0.328888798  0.315795745  0.877563011
     0.830991994  0.181457389  0.871397066
     0.670547967  0.150373680  0.620071104
     0.833271825  0.317348865  0.869535238
     0.668205770  0.015100330  0.620231413
     0.169115162  0.150294608  0.628836850
     0.330570646  0.180790275  0.878467982
     0.126764146  0.415774917  0.359701987
     0.381544050  0.582108824  0.110098648
     0.874444236  0.583381614  0.145116816
     0.622461506  0.415007705  0.395631198
     0.449263254  0.412133641  0.058143194
     0.054875237  0.585811641  0.323694246
     0.552087086  0.581886940  0.425553181
     0.955777129  0.417890546  0.168673988
     0.179064142  0.349081014  0.131641014
     0.330195694  0.652383715  0.381373938
     0.832324387  0.521049416  0.379320669
     0.661320340  0.484832523  0.110578921
     0.832726655  0.655852427  0.370315578
     0.670134945  0.347066618  0.107765709
     0.182683398  0.483859383  0.134802260
     0.325182577  0.517435764  0.388165558
     0.116134114  0.416406981  0.861359131
     0.377896970  0.586119383  0.612528364
     0.879833008  0.584928231  0.643993682
     0.623749167  0.416632340  0.879207672
     0.446086284  0.417719513  0.578282553
     0.054335339  0.584642046  0.829060564
     0.553361977  0.585254456  0.921166999
     0.946168240  0.417260129  0.670236010
     0.168887955  0.349031548  0.634353139
     0.327809439  0.651280366  0.883344252
     0.831352590  0.515970037  0.870491506
     0.671689029  0.484223322  0.620866017
     0.829532237  0.651825991  0.871851515
     0.670588470  0.348215979  0.622080602
     0.170172541  0.484633724  0.635518910
     0.329117950  0.516130900  0.880753515
     0.121871337  0.750913397  0.356879957
     0.378919356  0.916625539  0.106867668
     0.878189885  0.916605152  0.142431840
     0.620242745  0.750747806  0.391549877
     0.444932263  0.750405882  0.075838125
     0.055046708  0.916781230  0.325450334
     0.554793399  0.916714240  0.423614220
     0.945651851  0.751318162  0.172176944
     0.169944563  0.683370332  0.128998651
     0.331064505  0.984794853  0.379235311
     0.830939793  0.849012192  0.370657632
     0.669084933  0.818098876  0.120000929
     0.830914986  0.984246254  0.370822007
     0.668565585  0.682578437  0.120133387
     0.170054274  0.818582251  0.128813527
     0.330462174  0.849456469  0.379256994
     0.121558705  0.751027934  0.857655940
     0.378420098  0.916876929  0.607393125
     0.878100724  0.916718848  0.642207274
     0.620775146  0.750592992  0.891941284
     0.444971609  0.750453195  0.575889240
     0.054563894  0.916691691  0.825462663
     0.555054645  0.916660545  0.922947706
     0.944642228  0.750798352  0.674478705
     0.168459232  0.682960657  0.630078978
     0.330864927  0.984222534  0.878508747
     0.830386889  0.848997450  0.870381217
     0.669148840  0.818037633  0.620131654
     0.830468913  0.984393897  0.870355760
     0.669065086  0.682583724  0.619490315
     0.168836036  0.818322354  0.629002133
     0.330919089  0.849037217  0.878651988
     0.096259639  0.082494139  0.202010081
     0.405758002  0.250977716  0.453677891
     0.905652252  0.246558573  0.298784285
     0.595823822  0.082703170  0.046208183
     0.095486254  0.082452150  0.702877090
     0.405098007  0.248634395  0.951552771
     0.905334801  0.248880541  0.797494442
     0.596075277  0.083193319  0.545738061
     0.102555693  0.416614727  0.204698232
     0.402252282  0.585510446  0.458753491
     0.902835744  0.586176025  0.298871634
     0.602503742  0.414792101  0.032877281
     0.094429729  0.417000020  0.706881090
     0.403976595  0.583561582  0.954550562
     0.903679303  0.584375579  0.798217953
     0.597575408  0.416139097  0.549143578
     0.095687583  0.751208304  0.202880009
     0.404364184  0.917074587  0.453329489
     0.904309292  0.916679719  0.296454206
     0.595625233  0.750300214  0.046197982
     0.095102445  0.750822130  0.703713385
     0.404661150  0.916683920  0.952768518
     0.903805751  0.916704785  0.796318749
     0.595700416  0.750397580  0.545790218
     0.455521063  0.444425304  0.267481271

  ion indices of the primitive-cell ions
   primitive index   ion index
                 1           1
                 2           2
                 3           3
                 4           4
                 5           5
                 6           6
                 7           7
                 8           8
                 9           9
                10          10
                11          11
                12          12
                13          13
                14          14
                15          15
                16          16
                17          17
                18          18
                19          19
                20          20
                21          21
                22          22
                23          23
                24          24
                25          25
                26          26
                27          27
                28          28
                29          29
                30          30
                31          31
                32          32
                33          33
                34          34
                35          35
                36          36
                37          37
                38          38
                39          39
                40          40
                41          41
                42          42
                43          43
                44          44
                45          45
                46          46
                47          47
                48          48
                49          49
                50          50
                51          51
                52          52
                53          53
                54          54
                55          55
                56          56
                57          57
                58          58
                59          59
                60          60
                61          61
                62          62
                63          63
                64          64
                65          65
                66          66
                67          67
                68          68
                69          69
                70          70
                71          71
                72          72
                73          73
                74          74
                75          75
                76          76
                77          77
                78          78
                79          79
                80          80
                81          81
                82          82
                83          83
                84          84
                85          85
                86          86
                87          87
                88          88
                89          89
                90          90
                91          91
                92          92
                93          93
                94          94
                95          95
                96          96
                97          97
                98          98
                99          99
               100         100
               101         101
               102         102
               103         103
               104         104
               105         105
               106         106
               107         107
               108         108
               109         109
               110         110
               111         111
               112         112
               113         113
               114         114
               115         115
               116         116
               117         117
               118         118
               119         119
               120         120
               121         121
               122         122
               123         123
               124         124
               125         125
               126         126
               127         127
               128         128
               129         129
               130         130
               131         131
               132         132
               133         133
               134         134
               135         135
               136         136
               137         137
               138         138
               139         139
               140         140
               141         141
               142         142
               143         143
               144         144
               145         145

----------------------------------------------------------------------------------------



 KPOINTS: KPOINTS created by Atomic Simulation Env

Automatic generation of k-mesh.
 Grid dimensions read from file:
 generate k-points for:    3    1    3

 Generating k-lattice:

  Cartesian coordinates                     Fractional coordinates (reciprocal lattice)
     0.033458841  0.000000184 -0.000000273     0.333333333  0.000000000 -0.000000000
     0.000000395  0.056440872 -0.000000631    -0.000000000  1.000000000  0.000000000
     0.000000530  0.000000437  0.034140695     0.000000000 -0.000000000  0.333333333

  Length of vectors
     0.033458841  0.056440872  0.034140695

  Shift w.r.t. Gamma in fractional coordinates (k-lattice)
     0.000000000  0.000000000  0.000000000

 
 Subroutine IBZKPT returns following result:
 ===========================================
 
 Found      5 irreducible k-points:
 
 Following reciprocal coordinates:
            Coordinates               Weight
  0.000000  0.000000  0.000000      1.000000
  0.333333  0.000000  0.000000      2.000000
  0.000000  0.000000  0.333333      2.000000
  0.333333  0.000000  0.333333      2.000000
 -0.333333  0.000000  0.333333      2.000000
 
 Following cartesian coordinates:
            Coordinates               Weight
  0.000000  0.000000  0.000000      1.000000
  0.033459  0.000000 -0.000000      2.000000
  0.000001  0.000000  0.034141      2.000000
  0.033459  0.000001  0.034140      2.000000
 -0.033458  0.000000  0.034141      2.000000
 


--------------------------------------------------------------------------------------------------------




 Dimension of arrays:
   k-points           NKPTS =      5   k-points in BZ     NKDIM =      5   number of bands    NBANDS=    696
   number of dos      NEDOS =    301   number of ions     NIONS =    145
   non local maximal  LDIM  =      6   non local SUM 2l+1 LMDIM =     18
   total plane-waves  NPLWV = 896000
   max r-space proj   IRMAX =   6631   max aug-charges    IRDMAX=  16019
   dimension x,y,z NGX =    80 NGY =  140 NGZ =   80
   dimension x,y,z NGXF=   160 NGYF=  280 NGZF=  160
   support grid    NGXF=   160 NGYF=  280 NGZF=  160
   ions per type =              24  96  24   1
   NGX,Y,Z   is equivalent  to a cutoff of  13.35, 13.14, 13.62 a.u.
   NGXF,Y,Z  is equivalent  to a cutoff of  26.70, 26.27, 27.24 a.u.

 SYSTEM =  unknown system                          
 POSCAR =  Fe O  P  Na                             

 Startparameter for this run:
   NWRITE =      2    write-flag & timer
   PREC   = accura    normal or accurate (medium, high low for compatibility)
   ISTART =      1    job   : 0-new  1-cont  2-samecut
   ICHARG =      0    charge: 1-file 2-atom 10-const
   ISPIN  =      2    spin polarized calculation?
   LNONCOLLINEAR =      F non collinear calculations
   LSORBIT =      F    spin-orbit coupling
   INIWAV =      1    electr: 0-lowe 1-rand  2-diag
   LASPH  =      T    aspherical Exc in radial PAW
 Electronic Relaxation 1
   ENCUT  =  520.0 eV  38.22 Ry    6.18 a.u.  18.52 32.94 18.15*2*pi/ulx,y,z
   ENINI  =  520.0     initial cutoff
   ENAUG  =  605.4 eV  augmentation charge cutoff
   NELM   =    300;   NELMIN=  8; NELMDL=  0     # of ELM steps 
   EDIFF  = 0.1E-05   stopping-criterion for ELM
   LREAL  =      T    real-space projection
   NLSPLINE    = F    spline interpolate recip. space projectors
   LCOMPAT=      F    compatible to vasp.4.4
   GGA_COMPAT  = T    GGA compatible to vasp.4.4-vasp.4.6
   LMAXPAW     = -100 max onsite density
   LMAXMIX     =    4 max onsite mixed and CHGCAR
   VOSKOWN=      0    Vosko Wilk Nusair interpolation
   ROPT   =   -0.00025  -0.00025  -0.00025  -0.00025
 Ionic relaxation
   EDIFFG = -.2E-01   stopping-criterion for IOM
   NSW    =      1    number of steps for IOM
   NBLOCK =      1;   KBLOCK =      1    inner block; outer block 
   IBRION =      2    ionic relax: 0-MD 1-quasi-New 2-CG
   NFREE  =      1    steps in history (QN), initial steepest desc. (CG)
   ISIF   =      2    stress and relaxation
   IWAVPR =     11    prediction:  0-non 1-charg 2-wave 3-comb
   ISYM   =      0    0-nonsym 1-usesym 2-fastsym
   LCORR  =      T    Harris-Foulkes like correction to forces

   POTIM  = 0.5000    time-step for ionic-motion
   TEIN   =    0.0    initial temperature
   TEBEG  =    0.0;   TEEND  =   0.0 temperature during run
   SMASS  =  -3.00    Nose mass-parameter (am)
   estimated Nose-frequenzy (Omega)   =  0.10E-29 period in steps = 0.13E+47 mass=  -0.227E-26a.u.
   SCALEE = 1.0000    scale energy and forces
   NPACO  =    256;   APACO  = 10.0  distance and # of slots for P.C.
   PSTRESS=    0.0 pullay stress

  Mass of Ions in am
   POMASS =  55.85 16.00 30.97 22.99
  Ionic Valenz
   ZVAL   =  14.00  6.00  5.00  7.00
  Atomic Wigner-Seitz radii
   RWIGS  =  -1.00 -1.00 -1.00 -1.00
  virtual crystal weights 
   VCA    =   1.00  1.00  1.00  1.00
   NELECT =    1039.0000    total number of electrons
   NUPDOWN=     119.0000    fix difference up-down

 DOS related values:
   EMIN   =  10.00;   EMAX   =-10.00  energy-range for DOS
   EFERMI =   0.00;   METHOD = LEGACY      
   ISMEAR =     0;   SIGMA  =   0.05  broadening in eV -4-tet -1-fermi 0-gaus

 Electronic relaxation 2 (details)
   IALGO  =     58    algorithm
   LDIAG  =      T    sub-space diagonalisation (order eigenvalues)
   LSUBROT=      F    optimize rotation matrix (better conditioning)
   TURBO    =      0    0=normal 1=particle mesh
   IRESTART =      0    0=no restart 2=restart with 2 vectors
   NREBOOT  =      0    no. of reboots
   NMIN     =      0    reboot dimension
   EREF     =   0.00    reference energy to select bands
   IMIX   =      4    mixing-type and parameters
     AMIX     =   0.40;   BMIX     =  1.00
     AMIX_MAG =   1.60;   BMIX_MAG =  1.00
     AMIN     =   0.10
     WC   =   100.;   INIMIX=   1;  MIXPRE=   1;  MAXMIX= -45

 Intra band minimization:
   WEIMIN = 0.0010     energy-eigenvalue tresh-hold
   EBREAK =  0.36E-09  absolut break condition
   DEPER  =   0.30     relativ break condition  

   TIME   =   0.05     timestep for ELM

  volume/ion in A,a.u.               =      11.89        80.21
  Fermi-wavevector in a.u.,A,eV,Ry     =   1.382993  2.613477 26.023433  1.912668
  Thomas-Fermi vector in A             =   2.507632

 Write flags
   LWAVE        =      T    write WAVECAR
   LDOWNSAMPLE  =      F    k-point downsampling of WAVECAR
   LCHARG       =      T    write CHGCAR
   LVTOT        =      F    write LOCPOT, total local potential
   LVHAR        =      F    write LOCPOT, Hartree potential only
   LELF         =      F    write electronic localiz. function (ELF)
   LORBIT       =     12    0 simple, 1 ext, 2 COOP (PROOUT), +10 PAW based schemes


 Dipole corrections
   LMONO  =      F    monopole corrections only (constant potential shift)
   LDIPOL =      F    correct potential (dipole corrections)
   IDIPOL =      0    1-x, 2-y, 3-z, 4-all directions 
   EPSILON=  1.0000000 bulk dielectric constant

 LDA+U is selected, type is set to LDAUTYPE =  2
   angular momentum for each species LDAUL =     2   -1   -1   -1
   U (eV)           for each species LDAUU =   5.3  0.0  0.0  0.0
   J (eV)           for each species LDAUJ =   0.0  0.0  0.0  0.0
 Exchange correlation treatment:
   GGA     =    PE    GGA type
   LEXCH   =     8    internal setting for exchange type
   LIBXC   =     F    Libxc                    
   VOSKOWN =     0    Vosko Wilk Nusair interpolation
   LHFCALC =     F    Hartree Fock is set to
   LHFONE  =     F    Hartree Fock one center treatment
   AEXX    =    0.0000 exact exchange contribution

 Linear response parameters
   LEPSILON=     F    determine dielectric tensor
   LRPA    =     F    only Hartree local field effects (RPA)
   LNABLA  =     F    use nabla operator in PAW spheres
   LVEL    =     F    velocity operator in full k-point grid
   CSHIFT  =0.1000    complex shift for real part using Kramers Kronig
   OMEGAMAX=  -1.0    maximum frequency
   DEG_THRESHOLD= 0.2000000E-02 threshold for treating states as degnerate
   RTIME   =   -0.100 relaxation time in fs
  (WPLASMAI=    0.000 imaginary part of plasma frequency in eV, 0.658/RTIME)
   DFIELD  = 0.0000000 0.0000000 0.0000000 field for delta impulse in time

  Optional k-point grid parameters
   LKPOINTS_OPT  =     F    use optional k-point grid
   KPOINTS_OPT_MODE=     1    mode for optional k-point grid

 Orbital magnetization related:
   ORBITALMAG=     F  switch on orbital magnetization
   LCHIMAG   =     F  perturbation theory with respect to B field
   DQ        =  0.001000  dq finite difference perturbation B field
   LLRAUG    =     F  two centre corrections for induced B field
   LBONE     =     F  B-component reconstruction in AE one-centre
   LVGVCALC  =     T  calculate vGv susceptibility
   LVGVAPPL  =     F  apply vGv susceptibility instead of pGv for G=0

 Random number generation:
   RANDOM_GENERATOR = DEFAULT
   PCG_SEED         = not used


--------------------------------------------------------------------------------------------------------


 conjugate gradient relaxation of ions
 charge density and potential will be updated during run
 spin polarized calculation
 Conjugate gradient for all bands (Freysoldt, et al. PRB 79, 241103 (2009))
 preconditioned conjugated gradient                                        
 perform sub-space diagonalisation
    before iterative eigenvector-optimisation
 modified Broyden-mixing scheme, WC =      100.0
 initial mixing is a Kerker type mixing with AMIX =  0.4000 and BMIX =      1.0000
 Hartree-type preconditioning will be used
 using additional bands          176
 real space projection scheme for non local part
 use partial core corrections
 no Harris-corrections to forces 
 use gradient corrections 
 use of overlap-Matrix (Vanderbilt PP)
 Gauss-broadening in eV      SIGMA  =   0.05


--------------------------------------------------------------------------------------------------------


  energy-cutoff  :      520.00
  volume of cell :     1723.38
      direct lattice vectors                 reciprocal lattice vectors
     9.962489075 -0.000069663 -0.000154526     0.100376522  0.000000553 -0.000000819
    -0.000097698 17.717656860 -0.000226836     0.000000395  0.056440872 -0.000000631
     0.000079674  0.000109170  9.763519320     0.000001589  0.000001311  0.102422084

  length of vectors
     9.962489076 17.717656862  9.763519321     0.100376522  0.056440872  0.102422084



 old parameters found on file WAVECAR:
  energy-cutoff  :      520.00
  volume of cell :     1723.38
      direct lattice vectors                 reciprocal lattice vectors
     9.962489075 -0.000069663 -0.000154526     0.100376522  0.000000553 -0.000000819
    -0.000097698 17.717656860 -0.000226836     0.000000395  0.056440872 -0.000000631
     0.000079674  0.000109170  9.763519320     0.000001589  0.000001311  0.102422084

  length of vectors


 k-points in units of 2pi/SCALE and weight: KPOINTS created by Atomic Simulation Env
   0.00000000  0.00000000  0.00000000       0.111
   0.03345884  0.00000018 -0.00000027       0.222
   0.00000053  0.00000044  0.03414069       0.222
   0.03345937  0.00000062  0.03414042       0.222
  -0.03345831  0.00000025  0.03414097       0.222

 k-points in reciprocal lattice and weights: KPOINTS created by Atomic Simulation Env
   0.00000000  0.00000000  0.00000000       0.111
   0.33333333  0.00000000  0.00000000       0.222
   0.00000000  0.00000000  0.33333333       0.222
   0.33333333  0.00000000  0.33333333       0.222
  -0.33333333  0.00000000  0.33333333       0.222

 position of ions in fractional coordinates (direct lattice) 
   0.27489415  0.08355150  0.47817385
   0.22668650  0.24808219  0.22694301
   0.72571083  0.24888864  0.02075349
   0.77510570  0.08235109  0.27077430
   0.27499702  0.08237567  0.97803044
   0.22525580  0.24745848  0.73017756
   0.72903042  0.24967536  0.52095713
   0.77404617  0.08315629  0.77065998
   0.26929653  0.41503895  0.49237801
   0.22380287  0.58666996  0.22903703
   0.72374360  0.58309596  0.02101264
   0.78531323  0.41531302  0.27301363
   0.27363916  0.41523354  0.97420703
   0.22392672  0.58564696  0.73277432
   0.72741268  0.58319477  0.52154420
   0.77898700  0.41624606  0.76718521
   0.27411516  0.75171115  0.47938591
   0.22593400  0.91702926  0.22850721
   0.72544724  0.91668782  0.02084672
   0.77444028  0.75115758  0.27068061
   0.27475895  0.75151615  0.97872181
   0.22516446  0.91698562  0.72843502
   0.72520041  0.91680937  0.52115672
   0.77363467  0.75027350  0.77091297
   0.12300103  0.08312917  0.35601800
   0.38051408  0.24872796  0.10602635
   0.87704145  0.24875843  0.14506624
   0.62102325  0.08256684  0.39160331
   0.44512530  0.08249503  0.07553514
   0.05766407  0.24754061  0.32351091
   0.55622028  0.24898052  0.42557701
   0.94605195  0.08169386  0.17206132
   0.17039579  0.01479434  0.12853859
   0.33700800  0.32074565  0.37966989
   0.83530973  0.17699066  0.37069200
   0.66891764  0.15035504  0.12030069
   0.83495169  0.31170931  0.37920952
   0.66920056  0.01490163  0.12001292
   0.17009756  0.15004130  0.12741583
   0.32977437  0.18427300  0.37898562
   0.12182585  0.08237074  0.85681518
   0.37677011  0.25090311  0.60714428
   0.88115754  0.24832681  0.64338283
   0.62137744  0.08274451  0.89202234
   0.44515014  0.08417841  0.57505238
   0.05600168  0.24834909  0.82794178
   0.55483475  0.24819724  0.91977019
   0.94500485  0.08254915  0.67376510
   0.16922638  0.01506163  0.62823801
   0.32888880  0.31579575  0.87756301
   0.83099199  0.18145739  0.87139707
   0.67054797  0.15037368  0.62007110
   0.83327182  0.31734886  0.86953524
   0.66820577  0.01510033  0.62023141
   0.16911516  0.15029461  0.62883685
   0.33057065  0.18079028  0.87846798
   0.12676415  0.41577492  0.35970199
   0.38154405  0.58210882  0.11009865
   0.87444424  0.58338161  0.14511682
   0.62246151  0.41500770  0.39563120
   0.44926325  0.41213364  0.05814319
   0.05487524  0.58581164  0.32369425
   0.55208709  0.58188694  0.42555318
   0.95577713  0.41789055  0.16867399
   0.17906414  0.34908101  0.13164101
   0.33019569  0.65238371  0.38137394
   0.83232439  0.52104942  0.37932067
   0.66132034  0.48483252  0.11057892
   0.83272666  0.65585243  0.37031558
   0.67013495  0.34706662  0.10776571
   0.18268340  0.48385938  0.13480226
   0.32518258  0.51743576  0.38816556
   0.11613411  0.41640698  0.86135913
   0.37789697  0.58611938  0.61252836
   0.87983301  0.58492823  0.64399368
   0.62374917  0.41663234  0.87920767
   0.44608628  0.41771951  0.57828255
   0.05433534  0.58464205  0.82906056
   0.55336198  0.58525446  0.92116700
   0.94616824  0.41726013  0.67023601
   0.16888796  0.34903155  0.63435314
   0.32780944  0.65128037  0.88334425
   0.83135259  0.51597004  0.87049151
   0.67168903  0.48422332  0.62086602
   0.82953224  0.65182599  0.87185152
   0.67058847  0.34821598  0.62208060
   0.17017254  0.48463372  0.63551891
   0.32911795  0.51613090  0.88075351
   0.12187134  0.75091340  0.35687996
   0.37891936  0.91662554  0.10686767
   0.87818989  0.91660515  0.14243184
   0.62024274  0.75074781  0.39154988
   0.44493226  0.75040588  0.07583813
   0.05504671  0.91678123  0.32545033
   0.55479340  0.91671424  0.42361422
   0.94565185  0.75131816  0.17217694
   0.16994456  0.68337033  0.12899865
   0.33106451  0.98479485  0.37923531
   0.83093979  0.84901219  0.37065763
   0.66908493  0.81809888  0.12000093
   0.83091499  0.98424625  0.37082201
   0.66856559  0.68257844  0.12013339
   0.17005427  0.81858225  0.12881353
   0.33046217  0.84945647  0.37925699
   0.12155870  0.75102793  0.85765594
   0.37842010  0.91687693  0.60739312
   0.87810072  0.91671885  0.64220727
   0.62077515  0.75059299  0.89194128
   0.44497161  0.75045319  0.57588924
   0.05456389  0.91669169  0.82546266
   0.55505464  0.91666054  0.92294771
   0.94464223  0.75079835  0.67447870
   0.16845923  0.68296066  0.63007898
   0.33086493  0.98422253  0.87850875
   0.83038689  0.84899745  0.87038122
   0.66914884  0.81803763  0.62013165
   0.83046891  0.98439390  0.87035576
   0.66906509  0.68258372  0.61949032
   0.16883604  0.81832235  0.62900213
   0.33091909  0.84903722  0.87865199
   0.09625964  0.08249414  0.20201008
   0.40575800  0.25097772  0.45367789
   0.90565225  0.24655857  0.29878428
   0.59582382  0.08270317  0.04620818
   0.09548625  0.08245215  0.70287709
   0.40509801  0.24863440  0.95155277
   0.90533480  0.24888054  0.79749444
   0.59607528  0.08319332  0.54573806
   0.10255569  0.41661473  0.20469823
   0.40225228  0.58551045  0.45875349
   0.90283574  0.58617603  0.29887163
   0.60250374  0.41479210  0.03287728
   0.09442973  0.41700002  0.70688109
   0.40397659  0.58356158  0.95455056
   0.90367930  0.58437558  0.79821795
   0.59757541  0.41613910  0.54914358
   0.09568758  0.75120830  0.20288001
   0.40436418  0.91707459  0.45332949
   0.90430929  0.91667972  0.29645421
   0.59562523  0.75030021  0.04619798
   0.09510244  0.75082213  0.70371338
   0.40466115  0.91668392  0.95276852
   0.90380575  0.91670479  0.79631875
   0.59570042  0.75039758  0.54579022
   0.45552106  0.44442530  0.26748127

 position of ions in cartesian coordinates  (Angst):
   2.73865995  1.48036983  4.66859819
   2.25835566  4.39544408  2.21567120
   7.22986355  4.40967529  0.20245851
   7.72199560  1.45904390  2.64357163
   2.73972467  1.45959148  9.54895788
   2.24414240  4.38444843  7.12901181
   7.26297471  4.42366842  5.08620575
   7.71147975  1.47336476  7.52421509
   2.68286241  7.35355269  4.80720644
   2.22959460 10.39442644  2.23603982
   7.21023237 10.33104606  0.20491321
   7.82365566  7.35834863  2.66535831
   2.72616417  7.35705261  9.51155272
   2.23086870 10.37635621  7.15428877
   7.24682542 10.33285103  5.09186218
   7.76066994  7.37493431  7.49021285
   2.73083405 13.31859352  4.68028075
   2.25079360 16.24761890  2.23079164
   7.22717231 16.24151202  0.20321735
   7.71530096 13.30872793  2.64250531
   2.73728762 13.31519301  9.55555635
   2.24316690 16.24690034  7.11184662
   7.22475311 16.24372024  5.08800371
   7.70731503 13.29311868  7.52653396
   1.22541666  1.47288441  3.47595080
   3.79085155  4.40686169  1.03507507
   8.73750316  4.40737116  1.41616512
   6.18696044  1.46289041  3.82331179
   4.43455385  1.46159592  0.73740130
   0.57447927  4.38587086  3.15853998
   5.54134806  4.41135908  4.15498689
   9.42503795  1.44737657  1.67975927
   1.69757499  0.26212327  1.25495934
   3.35743745  5.68287940  3.70678951
   8.32177630  3.13584197  3.61908932
   6.66407957  2.66390560  1.17442064
   8.31819682  5.52274189  3.70221977
   6.66691137  0.26398849  1.17164169
   1.69459060  2.65838227  1.24396660
   3.28538571  3.26490426  3.70014067
   1.21374890  1.45950151  8.36549406
   3.75359193  4.44545517  5.92774978
   8.77854935  4.39977812  6.28148817
   6.19052898  1.46609301  8.70916256
   4.43484097  1.49147594  5.61444717
   0.55795787  4.40025036  8.08356062
   5.52758421  4.39753537  8.98005202
   9.41464615  1.46258519  6.57815379
   1.68596450  0.26691363  6.13378435
   3.27659013  5.59523355  8.56798096
   8.27880036  3.21503699  8.50773251
   6.68036151  2.66429025  6.05393848
   8.30149972  5.62271517  8.48952335
   6.65704063  0.26756363  6.05553470
   1.68484337  2.66292516  6.13960051
   3.29335878  3.20325293  8.57684703
   1.26287446  7.36658774  3.51184340
   3.80108033 10.31358984  1.07475927
   8.71159571 10.33611019  1.41658338
   6.20125693  7.35296393  3.86256252
   4.47574463  7.30201748  0.56751929
   0.54666251 10.37924115  3.16025366
   5.50013862 10.30968114  4.15467940
   9.52189182  7.40399313  1.64660925
   1.78390094  6.18489952  1.28517273
   3.28953764 11.55872943  3.72335280
   8.29200193  9.23175819  3.70325787
   6.58835811  8.59006228  1.07942726
   8.29599563 11.62015067  3.61530585
   6.67618675  6.14917232  1.05199030
   1.81994482  8.57285651  1.31600648
   3.23960824  9.16776903  3.78969430
   1.15701279  7.37784195  8.40978412
   3.76478597 10.38470266  5.98024117
   8.76532090 10.36356670  6.28737612
   6.21412361  7.38180137  8.58397020
   4.44413500  7.40104304  5.64590919
   0.54132416 10.35857388  8.09440782
   5.51287886 10.36939963  8.99361353
   9.42620339  7.39287904  6.54362138
   1.68256085  6.18407868  6.19341386
   3.26580471 11.53923565  8.62435028
   8.28236004  9.14181718  8.49881513
   6.69169677  8.57932364  6.06162372
   8.26421163 11.54886664  8.51206307
   6.68074585  6.16959243  6.07351337
   1.69534537  8.58663155  6.20476493
   3.27885373  9.14470341  8.59908602
   1.21409693 13.30445637  3.48421519
   3.77489890 16.24044204  1.04313807
   8.74887893 16.24004992  1.39029240
   6.17911942 13.30149155  3.82263865
   4.43256554 13.29541121  0.74020803
   0.54833859 16.24324694  3.17732416
   5.52706737 16.24203593  4.13567194
   9.42098655 13.31155030  1.68073636
   1.69301436 12.10772329  1.25929954
   3.29816052 17.44827562  3.70239674
   8.27817520 15.04248926  3.61860197
   6.66568097 14.49476165  1.17134242
   8.27791485 17.43851998  3.62017616
   6.66052023 12.09365707  1.17266650
   1.69409413 14.50336166  1.25746140
   3.29217303 15.05039662  3.70263924
   1.21102223 13.30654040  8.37355119
   3.76996491 16.24495076  5.93002805
   8.74803047 16.24211892  6.26985949
   6.18446334 13.29880320  8.70821977
   4.43299736 13.29630406  5.62246673
   0.54356841 16.24171513  8.05920429
   5.52970981 16.24113908  9.01092406
   9.41096827 13.30239541  6.58496958
   1.67825673 12.10051962  6.15160733
   3.29621206 17.43818998  8.57706274
   8.27270671 15.04228267  8.49766293
   6.66635750 14.49373116  6.05437842
   8.27351064 17.44119045  8.49738366
   6.66553628 12.09380523  6.04814744
   1.68199733 14.49881158  6.14106276
   3.29676486 15.04302293  8.57849193
   0.95899364  1.46161820  1.97229574
   4.04237129  4.44675831  4.42937322
   9.02255038  4.36840971  2.91699026
   5.93588392  1.46526992  0.45104366
   0.95132871  1.46092898  6.86252059
   4.03583599  4.40529456  9.29038487
   9.01942729  4.40960402  7.78615604
   5.93842879  1.47400873  5.32821312
   1.02168558  7.38145198  1.99846479
   4.00741331 10.37389524  4.47885360
   8.99445778 10.38563540  2.91776649
   6.00239904  7.34910573  0.32081078
   0.94077072  7.38833386  6.90153800
   4.02463145 10.33941994  9.31957806
   9.00290168 10.35379018  7.79314420
   5.95334157  7.37302804  5.36138720
   0.95322927 13.30966645  1.98063770
   4.02842029 16.24843416  4.42582072
   9.00910551 16.24138607  2.89408869
   5.93384026 13.29352528  0.45079266
   0.94743978 13.30287906  6.87053422
   4.03141864 16.24156698  9.30210337
   9.00412881 16.24188480  7.77452589
   5.93462906 13.29530492  5.32857107
   4.53810151  7.87417251  2.61138736



--------------------------------------------------------------------------------------------------------


 k-point   1 :   0.0000 0.0000 0.0000  plane waves:   46385
 k-point   2 :   0.3333 0.0000 0.0000  plane waves:   46400
 k-point   3 :   0.0000 0.0000 0.3333  plane waves:   46458
 k-point   4 :   0.3333 0.0000 0.3333  plane waves:   46379
 k-point   5 :  -0.3333 0.0000 0.3333  plane waves:   46380

 maximum and minimum number of plane-waves per node :     11622    11582

 maximum number of plane-waves:     46458
 maximum index in each direction: 
   IXMAX=   18   IYMAX=   32   IZMAX=   18
   IXMIN=  -18   IYMIN=  -32   IZMIN=  -18


 real space projection operators:
  total allocation   :      46437.81 KBytes
  max/ min on nodes  :      11702.28      11536.09


 parallel 3D FFT for wavefunctions:
    minimum data exchange during FFTs selected (reduces bandwidth)
 parallel 3D FFT for charge:
    minimum data exchange during FFTs selected (reduces bandwidth)


 total amount of memory used by VASP MPI-rank0   264803. kBytes
=======================================================================

   base      :      30000. kBytes
   nonlr-proj:      30714. kBytes
   fftplans  :       9535. kBytes
   grid      :      26700. kBytes
   one-center:       1150. kBytes
   wavefun   :     166704. kBytes

     INWAV:  cpu time     30.4440: real time     30.9105
 Broyden mixing: mesh for mixing (old mesh)
   NGX = 37   NGY = 65   NGZ = 37
  (NGX  =160   NGY  =280   NGZ  =160)
  gives a total of  88985 points

 charge density for first step will be calculated from the start-wavefunctions


--------------------------------------------------------------------------------------------------------


 Maximum index for non-local projection operator         1628
 Maximum index for augmentation-charges          750 (set IRDMAX)


--------------------------------------------------------------------------------------------------------


 initial charge from wavefunction
 First call to EWALD:  gamma=   0.148
 Maximum number of real-space cells 3x 2x 3
 Maximum number of reciprocal cells 2x 4x 2

    FEWALD:  cpu time      0.0629: real time      0.0633


--------------------------------------- Ionic step        1  -------------------------------------------




--------------------------------------- Iteration      1(   1)  ---------------------------------------


    POTLOK:  cpu time      0.1147: real time      0.1153
    SETDIJ:  cpu time      0.4465: real time      0.4481
    TRIAL :  cpu time      7.4606: real time      7.5025
    CORREC:  cpu time     13.2623: real time     13.3375
    CHARGE:  cpu time      0.2535: real time      0.2556
    --------------------------------------------
      LOOP:  cpu time     21.5880: real time     21.7101

 eigenvalue-minimisations  :     0
 total energy-change (2. order) :-0.1020014E+04  (-0.7388206E-05)
 number of electron    1039.0000138 magnetization     119.0000055
 augmentation part      257.3675962 magnetization      80.8995495

 Free energy of the ion-electron system (eV)
  ---------------------------------------------------
  alpha Z        PSCENC =      2952.23721804
  Ewald energy   TEWEN  =    -62493.33874845
  -Hartree energ DENC   =    -37467.82583411
  -exchange      EXHF   =         0.00000000
  -V(xc)+E(xc)   XCENC  =      4604.16031656
  PAW double counting   =    159668.94351596  -161740.75019955
  entropy T*S    EENTRO =        -0.00000000
  eigenvalues    EBANDS =    -12018.88169345
  atomic energy  EATOM  =    105475.44126576
  ---------------------------------------------------
  free energy    TOTEN  =     -1020.01415923 eV

  energy without entropy =    -1020.01415923  energy(sigma->0) =    -1020.01415923


--------------------------------------------------------------------------------------------------------




--------------------------------------- Iteration      1(   2)  ---------------------------------------


    POTLOK:  cpu time      0.1078: real time      0.1083
    SETDIJ:  cpu time      0.4454: real time      0.4470
    TRIAL :  cpu time      7.4212: real time      7.4586
    CORREC:  cpu time     13.2230: real time     13.2979
    CHARGE:  cpu time      0.2545: real time      0.2568
    --------------------------------------------
      LOOP:  cpu time     21.4631: real time     21.5810

 eigenvalue-minimisations  :     0
 total energy-change (2. order) :-0.1606319E-04  (-0.3099304E-06)
 number of electron    1039.0000138 magnetization     119.0000055
 augmentation part      257.3676017 magnetization      80.8995559

 Free energy of the ion-electron system (eV)
  ---------------------------------------------------
  alpha Z        PSCENC =      2952.23721804
  Ewald energy   TEWEN  =    -62493.33874845
  -Hartree energ DENC   =    -37467.82120548
  -exchange      EXHF   =         0.00000000
  -V(xc)+E(xc)   XCENC  =      4604.16031976
  PAW double counting   =    159668.96488273  -161740.77099876
  entropy T*S    EENTRO =        -0.00000000
  eigenvalues    EBANDS =    -12018.88690890
  atomic energy  EATOM  =    105475.44126576
  ---------------------------------------------------
  free energy    TOTEN  =     -1020.01417529 eV

  energy without entropy =    -1020.01417529  energy(sigma->0) =    -1020.01417529


--------------------------------------------------------------------------------------------------------




--------------------------------------- Iteration      1(   3)  ---------------------------------------


    POTLOK:  cpu time      0.1097: real time      0.1102
    SETDIJ:  cpu time      0.4476: real time      0.4491
    TRIAL :  cpu time      7.3878: real time      7.4251
    CORREC:  cpu time      3.3352: real time      3.3526
    CHARGE:  cpu time      0.2548: real time      0.2570
    --------------------------------------------
      LOOP:  cpu time     11.5362: real time     11.5952

 eigenvalue-minimisations  :     0
 total energy-change (2. order) :-0.1020756E-04  (-0.1616090E-05)
 number of electron    1039.0000138 magnetization     119.0000055
 augmentation part      257.3676097 magnetization      80.8995540

 Free energy of the ion-electron system (eV)
  ---------------------------------------------------
  alpha Z        PSCENC =      2952.23721804
  Ewald energy   TEWEN  =    -62493.33874845
  -Hartree energ DENC   =    -37467.81908547
  -exchange      EXHF   =         0.00000000
  -V(xc)+E(xc)   XCENC  =      4604.16046410
  PAW double counting   =    159669.08979287  -161740.89650315
  entropy T*S    EENTRO =        -0.00000000
  eigenvalues    EBANDS =    -12018.88858921
  atomic energy  EATOM  =    105475.44126576
  ---------------------------------------------------
  free energy    TOTEN  =     -1020.01418550 eV

  energy without entropy =    -1020.01418550  energy(sigma->0) =    -1020.01418550


--------------------------------------------------------------------------------------------------------




--------------------------------------- Iteration      1(   4)  ---------------------------------------


    POTLOK:  cpu time      0.1083: real time      0.1088
    SETDIJ:  cpu time      0.4481: real time      0.4496
    TRIAL :  cpu time      7.3917: real time      7.4284
    CORREC:  cpu time      3.3234: real time      3.3395
    CHARGE:  cpu time      0.2531: real time      0.2553
    --------------------------------------------
      LOOP:  cpu time     11.5261: real time     11.5831

 eigenvalue-minimisations  :     0
 total energy-change (2. order) :-0.1600376E-05  (-0.7350995E-06)
 number of electron    1039.0000138 magnetization     119.0000055
 augmentation part      257.3675984 magnetization      80.8995503

 Free energy of the ion-electron system (eV)
  ---------------------------------------------------
  alpha Z        PSCENC =      2952.23721804
  Ewald energy   TEWEN  =    -62493.33874845
  -Hartree energ DENC   =    -37467.82040311
  -exchange      EXHF   =         0.00000000
  -V(xc)+E(xc)   XCENC  =      4604.16050133
  PAW double counting   =    159669.18249907  -161740.98941547
  entropy T*S    EENTRO =        -0.00000000
  eigenvalues    EBANDS =    -12018.88710427
  atomic energy  EATOM  =    105475.44126576
  ---------------------------------------------------
  free energy    TOTEN  =     -1020.01418710 eV

  energy without entropy =    -1020.01418710  energy(sigma->0) =    -1020.01418710


--------------------------------------------------------------------------------------------------------




--------------------------------------- Iteration      1(   5)  ---------------------------------------


    POTLOK:  cpu time      0.1076: real time      0.1081
    SETDIJ:  cpu time      0.4477: real time      0.4493
    TRIAL :  cpu time      7.3913: real time      7.4285
    CORREC:  cpu time      3.3257: real time      3.3432
    CHARGE:  cpu time      0.2529: real time      0.2551
    --------------------------------------------
      LOOP:  cpu time     11.5259: real time     11.5849

 eigenvalue-minimisations  :     0
 total energy-change (2. order) :-0.7599592E-06  (-0.3821398E-06)
 number of electron    1039.0000138 magnetization     119.0000055
 augmentation part      257.3675960 magnetization      80.8995502

 Free energy of the ion-electron system (eV)
  ---------------------------------------------------
  alpha Z        PSCENC =      2952.23721804
  Ewald energy   TEWEN  =    -62493.33874845
  -Hartree energ DENC   =    -37467.81969852
  -exchange      EXHF   =         0.00000000
  -V(xc)+E(xc)   XCENC  =      4604.16044419
  PAW double counting   =    159669.23156766  -161741.03795835
  entropy T*S    EENTRO =        -0.00000000
  eigenvalues    EBANDS =    -12018.88827819
  atomic energy  EATOM  =    105475.44126576
  ---------------------------------------------------
  free energy    TOTEN  =     -1020.01418786 eV

  energy without entropy =    -1020.01418786  energy(sigma->0) =    -1020.01418786


--------------------------------------------------------------------------------------------------------




--------------------------------------- Iteration      1(   6)  ---------------------------------------


    POTLOK:  cpu time      0.1081: real time      0.1087
    SETDIJ:  cpu time      0.4473: real time      0.4488
    TRIAL :  cpu time      7.3895: real time      7.4264
    CORREC:  cpu time      3.3306: real time      3.3476
    CHARGE:  cpu time      0.2593: real time      0.2616
    --------------------------------------------
      LOOP:  cpu time     11.5354: real time     11.5938

 eigenvalue-minimisations  :     0
 total energy-change (2. order) :-0.3930327E-06  (-0.2418616E-06)
 number of electron    1039.0000138 magnetization     119.0000055
 augmentation part      257.3676027 magnetization      80.8995497

 Free energy of the ion-electron system (eV)
  ---------------------------------------------------
  alpha Z        PSCENC =      2952.23721804
  Ewald energy   TEWEN  =    -62493.33874845
  -Hartree energ DENC   =    -37467.81987927
  -exchange      EXHF   =         0.00000000
  -V(xc)+E(xc)   XCENC  =      4604.16043121
  PAW double counting   =    159669.24187393  -161741.04812794
  entropy T*S    EENTRO =        -0.00000000
  eigenvalues    EBANDS =    -12018.88822154
  atomic energy  EATOM  =    105475.44126576
  ---------------------------------------------------
  free energy    TOTEN  =     -1020.01418825 eV

  energy without entropy =    -1020.01418825  energy(sigma->0) =    -1020.01418825


--------------------------------------------------------------------------------------------------------




--------------------------------------- Iteration      1(   7)  ---------------------------------------


    POTLOK:  cpu time      0.1083: real time      0.1090
    SETDIJ:  cpu time      0.4454: real time      0.4468
    TRIAL :  cpu time      7.3791: real time      7.4148
    CORREC:  cpu time      3.3285: real time      3.3440
    CHARGE:  cpu time      0.2534: real time      0.2554
    --------------------------------------------
      LOOP:  cpu time     11.5177: real time     11.5802

 eigenvalue-minimisations  :     0
 total energy-change (2. order) :-0.2059824E-06  (-0.8341213E-07)
 number of electron    1039.0000138 magnetization     119.0000055
 augmentation part      257.3675992 magnetization      80.8995483

 Free energy of the ion-electron system (eV)
  ---------------------------------------------------
  alpha Z        PSCENC =      2952.23721804
  Ewald energy   TEWEN  =    -62493.33874845
  -Hartree energ DENC   =    -37467.82078951
  -exchange      EXHF   =         0.00000000
  -V(xc)+E(xc)   XCENC  =      4604.16044820
  PAW double counting   =    159669.22409804  -161741.03065725
  entropy T*S    EENTRO =        -0.00000000
  eigenvalues    EBANDS =    -12018.88702330
  atomic energy  EATOM  =    105475.44126576
  ---------------------------------------------------
  free energy    TOTEN  =     -1020.01418846 eV

  energy without entropy =    -1020.01418846  energy(sigma->0) =    -1020.01418846


--------------------------------------------------------------------------------------------------------




--------------------------------------- Iteration      1(   8)  ---------------------------------------


    POTLOK:  cpu time      0.1081: real time      0.1086
    SETDIJ:  cpu time      0.4461: real time      0.4475
    TRIAL :  cpu time      7.3630: real time      7.3988
    CORREC:  cpu time      3.3157: real time      3.3312
    EDDIAG:  cpu time      2.2857: real time      2.2967
    CHARGE:  cpu time      0.2536: real time      0.2557
    --------------------------------------------
      LOOP:  cpu time     13.7728: real time     13.8391

 eigenvalue-minimisations  :     0
 total energy-change (2. order) :-0.8341158E-07  (-0.6064976E-07)
 number of electron    1039.0000138 magnetization     119.0000055
 augmentation part      257.3675973 magnetization      80.8995483

 Free energy of the ion-electron system (eV)
  ---------------------------------------------------
  alpha Z        PSCENC =      2952.23721804
  Ewald energy   TEWEN  =    -62493.33874845
  -Hartree energ DENC   =    -37467.82019649
  -exchange      EXHF   =         0.00000000
  -V(xc)+E(xc)   XCENC  =      4604.16042692
  PAW double counting   =    159669.20310705  -161741.00959620
  entropy T*S    EENTRO =        -0.00000000
  eigenvalues    EBANDS =    -12018.88766518
  atomic energy  EATOM  =    105475.44126576
  ---------------------------------------------------
  free energy    TOTEN  =     -1020.01418854 eV

  energy without entropy =    -1020.01418854  energy(sigma->0) =    -1020.01418854


--------------------------------------------------------------------------------------------------------


  average scaling for gradient   0.7970


 average (electrostatic) potential at core
  the test charge radii are     0.9500  0.7215  0.9587  0.9254
  (the norm of the test charge is              1.0000)
       1 -83.5319       2 -83.4924       3 -83.3749       4 -83.4059       5 -83.4746
       6 -83.5071       7 -83.3636       8 -83.4687       9 -83.5458      10 -83.5841
      11 -83.4400      12 -79.2020      13 -83.5979      14 -83.5537      15 -83.4254
      16 -83.4299      17 -83.5196      18 -83.4980      19 -83.4687      20 -83.4260
      21 -83.5009      22 -83.5062      23 -83.4763      24 -83.4873      25 -71.6205
      26 -71.6261      27 -71.4675      28 -71.5425      29 -71.6439      30 -71.6103
      31 -71.6375      32 -71.6126      33 -72.0262      34 -72.0757      35 -71.8720
      36 -71.9581      37 -71.6578      38 -71.9830      39 -72.0335      40 -72.0710
      41 -71.6021      42 -71.6382      43 -71.5386      44 -71.5768      45 -71.6643
      46 -71.6637      47 -71.5802      48 -71.6523      49 -72.0288      50 -72.0574
      51 -71.9868      52 -71.9563      53 -71.9260      54 -71.9796      55 -72.0609
      56 -72.0486      57 -71.6539      58 -71.7555      59 -71.5369      60 -71.4363
      61 -71.9269      62 -71.6904      63 -71.7472      64 -71.2171      65 -72.0236
      66 -72.1287      67 -71.6896      68 -71.8322      69 -71.9089      70 -71.7964
      71 -72.0364      72 -72.2254      73 -71.8521      74 -71.7190      75 -71.5674
      76 -71.7083      77 -71.7245      78 -71.7056      79 -71.6382      80 -71.8478
      81 -72.2539      82 -72.0997      83 -71.9611      84 -71.9806      85 -71.9919
      86 -71.9762      87 -72.2063      88 -72.0655      89 -71.6307      90 -71.6060
      91 -71.5853      92 -71.5597      93 -71.6672      94 -71.6571      95 -71.6582
      96 -71.6374      97 -72.1087      98 -72.0248      99 -72.0007     100 -71.9985
     101 -71.9993     102 -71.9615     103 -72.0509     104 -72.0442     105 -71.6232
     106 -71.6160     107 -71.5925     108 -71.5943     109 -71.6615     110 -71.6612
     111 -71.6522     112 -71.6700     113 -72.0399     114 -72.0356     115 -71.9933
     116 -71.9964     117 -71.9872     118 -71.9730     119 -72.0608     120 -72.0398
     121 -86.7425     122 -86.7810     123 -86.5678     124 -86.7108     125 -86.7521
     126 -86.7538     127 -86.6882     128 -86.7103     129 -86.5984     130 -86.8746
     131 -86.6183     132 -86.7484     133 -86.9296     134 -86.8235     135 -86.7166
     136 -86.7198     137 -86.7749     138 -86.7520     139 -86.7312     140 -86.7261
     141 -86.7641     142 -86.7505     143 -86.7300     144 -86.7198     145 -44.5157



 E-fermi :   3.6253     XC(G=0): -10.0278     alpha+bet :-10.1256

 Fermi energy:         2.6378297154

 spin component 1

 k-point     1 :       0.0000    0.0000    0.0000
  band No.  band energies     occupation 
      1     -55.6178      1.00000
      2     -55.6128      1.00000
      3     -55.5703      1.00000
      4     -55.5508      1.00000
      5     -55.5365      1.00000
      6     -55.5343      1.00000
      7     -55.5214      1.00000
      8     -55.5210      1.00000
      9     -55.5209      1.00000
     10     -55.5197      1.00000
     11     -55.5128      1.00000
     12     -55.5010      1.00000
     13     -55.4929      1.00000
     14     -55.4902      1.00000
     15     -55.4832      1.00000
     16     -55.4793      1.00000
     17     -55.4648      1.00000
     18     -55.4586      1.00000
     19     -55.4561      1.00000
     20     -55.4516      1.00000
     21     -55.4389      1.00000
     22     -55.4378      1.00000
     23     -55.4368      1.00000
     24     -55.4192      1.00000
     25     -55.4191      1.00000
     26     -55.4158      1.00000
     27     -55.4095      1.00000
     28     -55.4013      1.00000
     29     -55.4007      1.00000
     30     -55.3934      1.00000
     31     -55.3879      1.00000
     32     -55.3787      1.00000
     33     -55.3778      1.00000
     34     -55.3696      1.00000
     35     -55.3682      1.00000
     36     -55.3667      1.00000
     37     -55.3635      1.00000
     38     -55.3553      1.00000
     39     -55.3547      1.00000
     40     -55.3502      1.00000
     41     -55.3465      1.00000
     42     -55.3462      1.00000
     43     -55.3172      1.00000
     44     -55.3169      1.00000
     45     -55.3141      1.00000
     46     -55.3140      1.00000
     47     -55.3038      1.00000
     48     -55.3019      1.00000
     49     -55.3016      1.00000
     50     -55.2973      1.00000
     51     -55.2969      1.00000
     52     -55.2940      1.00000
     53     -55.2877      1.00000
     54     -55.2844      1.00000
     55     -55.2754      1.00000
     56     -55.2745      1.00000
     57     -55.2730      1.00000
     58     -55.2703      1.00000
     59     -55.2702      1.00000
     60     -55.2684      1.00000
     61     -55.2553      1.00000
     62     -55.2414      1.00000
     63     -55.2397      1.00000
     64     -55.2364      1.00000
     65     -55.2265      1.00000
     66     -55.2194      1.00000
     67     -55.2185      1.00000
     68     -55.1881      1.00000
     69     -55.1797      1.00000
     70     -51.8479      1.00000
     71     -50.4066      1.00000
     72     -50.1144      1.00000
     73     -18.9785      1.00000
     74     -18.7940      1.00000
     75     -18.7473      1.00000
     76     -18.6489      1.00000
     77     -18.5449      1.00000
     78     -18.4781      1.00000
     79     -18.4357      1.00000
     80     -18.3756      1.00000
     81     -18.3701      1.00000
     82     -18.3293      1.00000
     83     -18.3124      1.00000
     84     -18.3076      1.00000
     85     -18.2958      1.00000
     86     -18.2903      1.00000
     87     -18.2849      1.00000
     88     -18.2720      1.00000
     89     -18.2611      1.00000
     90     -18.2318      1.00000
     91     -18.2255      1.00000
     92     -18.2167      1.00000
     93     -18.1903      1.00000
     94     -18.1837      1.00000
     95     -18.1621      1.00000
     96     -18.1416      1.00000
     97     -18.1300      1.00000
     98     -18.1238      1.00000
     99     -18.0733      1.00000
    100     -16.3247      1.00000
    101     -16.2418      1.00000
    102     -16.2040      1.00000
    103     -16.2006      1.00000
    104     -16.1689      1.00000
    105     -16.1634      1.00000
    106     -16.1412      1.00000
    107     -16.1113      1.00000
    108     -16.0813      1.00000
    109     -16.0726      1.00000
    110     -16.0544      1.00000
    111     -16.0450      1.00000
    112     -16.0344      1.00000
    113     -16.0304      1.00000
    114     -16.0231      1.00000
    115     -16.0219      1.00000
    116     -16.0100      1.00000
    117     -16.0043      1.00000
    118     -15.9956      1.00000
    119     -15.9940      1.00000
    120     -15.9868      1.00000
    121     -15.9758      1.00000
    122     -15.9581      1.00000
    123     -15.9385      1.00000
    124     -15.9125      1.00000
    125     -15.9052      1.00000
    126     -15.8979      1.00000
    127     -15.8901      1.00000
    128     -15.8682      1.00000
    129     -15.8557      1.00000
    130     -15.8442      1.00000
    131     -15.8412      1.00000
    132     -15.8181      1.00000
    133     -15.8093      1.00000
    134     -15.7941      1.00000
    135     -15.7919      1.00000
    136     -15.7763      1.00000
    137     -15.7724      1.00000
    138     -15.7574      1.00000
    139     -15.7478      1.00000
    140     -15.7412      1.00000
    141     -15.7386      1.00000
    142     -15.7287      1.00000
    143     -15.7181      1.00000
    144     -15.7147      1.00000
    145     -15.7103      1.00000
    146     -15.7033      1.00000
    147     -15.6997      1.00000
    148     -15.6909      1.00000
    149     -15.6887      1.00000
    150     -15.6750      1.00000
    151     -15.6623      1.00000
    152     -15.6555      1.00000
    153     -15.6535      1.00000
    154     -15.6427      1.00000
    155     -15.6407      1.00000
    156     -15.6294      1.00000
    157     -15.6224      1.00000
    158     -15.6159      1.00000
    159     -15.6113      1.00000
    160     -15.6048      1.00000
    161     -15.6018      1.00000
    162     -15.5960      1.00000
    163     -15.5915      1.00000
    164     -15.5852      1.00000
    165     -15.5708      1.00000
    166     -15.5637      1.00000
    167     -15.5326      1.00000
    168     -15.5110      1.00000
    169     -15.4988      1.00000
    170     -15.4667      1.00000
    171     -15.4407      1.00000
    172      -7.1365      1.00000
    173      -6.9965      1.00000
    174      -6.9847      1.00000
    175      -6.9730      1.00000
    176      -6.9626      1.00000
    177      -6.9432      1.00000
    178      -6.9023      1.00000
    179      -6.8999      1.00000
    180      -6.8882      1.00000
    181      -6.8718      1.00000
    182      -6.8382      1.00000
    183      -6.7319      1.00000
    184      -6.4150      1.00000
    185      -6.3514      1.00000
    186      -6.3225      1.00000
    187      -6.2040      1.00000
    188      -6.2030      1.00000
    189      -6.1824      1.00000
    190      -6.1531      1.00000
    191      -6.1417      1.00000
    192      -6.0995      1.00000
    193      -6.0926      1.00000
    194      -6.0840      1.00000
    195      -6.0694      1.00000
    196      -6.0574      1.00000
    197      -6.0474      1.00000
    198      -6.0369      1.00000
    199      -6.0150      1.00000
    200      -6.0074      1.00000
    201      -5.9838      1.00000
    202      -5.9596      1.00000
    203      -5.9454      1.00000
    204      -5.9026      1.00000
    205      -5.8882      1.00000
    206      -5.8825      1.00000
    207      -5.8578      1.00000
    208      -5.8263      1.00000
    209      -5.8221      1.00000
    210      -5.8153      1.00000
    211      -5.8075      1.00000
    212      -5.7531      1.00000
    213      -5.7048      1.00000
    214      -5.6552      1.00000
    215      -5.6189      1.00000
    216      -5.6113      1.00000
    217      -5.5469      1.00000
    218      -5.5316      1.00000
    219      -5.4872      1.00000
    220      -5.4643      1.00000
    221      -5.4292      1.00000
    222      -5.4134      1.00000
    223      -5.4048      1.00000
    224      -5.3978      1.00000
    225      -5.3164      1.00000
    226      -5.2923      1.00000
    227      -5.2759      1.00000
    228      -5.2675      1.00000
    229      -5.2627      1.00000
    230      -5.2547      1.00000
    231      -5.2372      1.00000
    232      -5.2225      1.00000
    233      -5.2105      1.00000
    234      -5.1989      1.00000
    235      -5.1945      1.00000
    236      -5.1806      1.00000
    237      -5.1768      1.00000
    238      -5.1734      1.00000
    239      -5.1588      1.00000
    240      -5.1549      1.00000
    241      -5.1437      1.00000
    242      -5.1367      1.00000
    243      -5.1253      1.00000
    244      -5.1166      1.00000
    245      -5.1150      1.00000
    246      -5.1056      1.00000
    247      -5.1008      1.00000
    248      -5.0910      1.00000
    249      -5.0847      1.00000
    250      -5.0782      1.00000
    251      -5.0756      1.00000
    252      -5.0736      1.00000
    253      -5.0638      1.00000
    254      -5.0608      1.00000
    255      -5.0570      1.00000
    256      -5.0495      1.00000
    257      -5.0440      1.00000
    258      -5.0410      1.00000
    259      -5.0344      1.00000
    260      -5.0290      1.00000
    261      -5.0231      1.00000
    262      -5.0216      1.00000
    263      -5.0168      1.00000
    264      -5.0143      1.00000
    265      -5.0108      1.00000
    266      -5.0023      1.00000
    267      -4.9910      1.00000
    268      -4.9851      1.00000
    269      -4.9762      1.00000
    270      -4.9739      1.00000
    271      -4.9697      1.00000
    272      -4.9625      1.00000
    273      -4.9611      1.00000
    274      -4.9525      1.00000
    275      -4.9510      1.00000
    276      -4.9493      1.00000
    277      -4.9423      1.00000
    278      -4.9333      1.00000
    279      -4.9255      1.00000
    280      -4.9199      1.00000
    281      -4.9163      1.00000
    282      -4.9091      1.00000
    283      -4.9014      1.00000
    284      -4.8942      1.00000
    285      -4.8825      1.00000
    286      -4.8727      1.00000
    287      -4.8681      1.00000
    288      -4.8658      1.00000
    289      -4.8586      1.00000
    290      -4.8483      1.00000
    291      -4.8337      1.00000
    292      -4.8166      1.00000
    293      -4.8047      1.00000
    294      -4.8031      1.00000
    295      -4.7911      1.00000
    296      -4.7840      1.00000
    297      -4.7763      1.00000
    298      -4.7278      1.00000
    299      -4.6893      1.00000
    300      -4.6823      1.00000
    301      -4.5979      1.00000
    302      -4.4929      1.00000
    303      -4.4297      1.00000
    304      -4.3339      1.00000
    305      -4.3083      1.00000
    306      -4.2965      1.00000
    307      -4.2750      1.00000
    308      -4.1187      1.00000
    309      -4.0082      1.00000
    310      -3.9815      1.00000
    311      -3.9609      1.00000
    312      -3.9411      1.00000
    313      -3.9047      1.00000
    314      -3.8595      1.00000
    315      -3.5885      1.00000
    316      -3.5577      1.00000
    317      -3.5437      1.00000
    318      -3.4764      1.00000
    319      -3.4398      1.00000
    320      -3.4263      1.00000
    321      -3.4169      1.00000
    322      -3.3753      1.00000
    323      -3.3635      1.00000
    324      -3.3134      1.00000
    325      -3.2583      1.00000
    326      -3.2484      1.00000
    327      -3.2214      1.00000
    328      -3.1758      1.00000
    329      -3.1679      1.00000
    330      -3.0380      1.00000
    331      -3.0036      1.00000
    332      -3.0006      1.00000
    333      -2.9875      1.00000
    334      -2.9397      1.00000
    335      -2.9119      1.00000
    336      -2.9073      1.00000
    337      -2.8817      1.00000
    338      -2.8769      1.00000
    339      -2.8721      1.00000
    340      -2.8434      1.00000
    341      -2.8106      1.00000
    342      -2.8053      1.00000
    343      -2.7756      1.00000
    344      -2.7752      1.00000
    345      -2.7674      1.00000
    346      -2.7541      1.00000
    347      -2.7406      1.00000
    348      -2.7344      1.00000
    349      -2.7111      1.00000
    350      -2.6950      1.00000
    351      -2.6890      1.00000
    352      -2.6747      1.00000
    353      -2.6722      1.00000
    354      -2.6611      1.00000
    355      -2.6507      1.00000
    356      -2.6297      1.00000
    357      -2.6048      1.00000
    358      -2.5953      1.00000
    359      -2.5819      1.00000
    360      -2.5312      1.00000
    361      -2.4961      1.00000
    362      -2.4893      1.00000
    363      -2.4768      1.00000
    364      -2.4627      1.00000
    365      -2.4157      1.00000
    366      -2.3975      1.00000
    367      -2.3941      1.00000
    368      -2.3775      1.00000
    369      -2.3667      1.00000
    370      -2.3589      1.00000
    371      -2.3381      1.00000
    372      -2.3150      1.00000
    373      -2.3084      1.00000
    374      -2.2629      1.00000
    375      -2.2540      1.00000
    376      -2.2351      1.00000
    377      -2.2298      1.00000
    378      -2.2267      1.00000
    379      -2.2059      1.00000
    380      -2.1168      1.00000
    381      -1.9350      1.00000
    382      -1.8368      1.00000
    383      -1.7157      1.00000
    384      -1.5470      1.00000
    385      -1.5457      1.00000
    386      -1.4693      1.00000
    387      -1.4358      1.00000
    388      -1.4216      1.00000
    389      -1.3914      1.00000
    390      -1.3638      1.00000
    391      -1.3431      1.00000
    392      -1.2622      1.00000
    393      -1.2532      1.00000
    394      -1.1677      1.00000
    395      -1.1437      1.00000
    396      -1.1196      1.00000
    397      -1.0998      1.00000
    398      -1.0935      1.00000
    399      -1.0448      1.00000
    400      -1.0385      1.00000
    401      -1.0287      1.00000
    402      -0.9877      1.00000
    403      -0.9775      1.00000
    404      -0.9274      1.00000
    405      -0.9070      1.00000
    406      -0.8985      1.00000
    407      -0.8708      1.00000
    408      -0.8653      1.00000
    409      -0.8437      1.00000
    410      -0.8213      1.00000
    411      -0.8089      1.00000
    412      -0.7930      1.00000
    413      -0.7889      1.00000
    414      -0.7807      1.00000
    415      -0.7109      1.00000
    416      -0.6534      1.00000
    417      -0.6348      1.00000
    418      -0.5918      1.00000
    419      -0.5816      1.00000
    420      -0.5677      1.00000
    421      -0.5384      1.00000
    422      -0.5231      1.00000
    423      -0.5129      1.00000
    424      -0.4956      1.00000
    425      -0.4903      1.00000
    426      -0.4694      1.00000
    427      -0.4571      1.00000
    428      -0.4396      1.00000
    429      -0.4012      1.00000
    430      -0.3476      1.00000
    431      -0.3442      1.00000
    432      -0.3343      1.00000
    433      -0.3058      1.00000
    434      -0.2863      1.00000
    435      -0.2668      1.00000
    436      -0.2571      1.00000
    437      -0.2445      1.00000
    438      -0.2166      1.00000
    439      -0.2123      1.00000
    440      -0.2077      1.00000
    441      -0.1994      1.00000
    442      -0.1778      1.00000
    443      -0.1759      1.00000
    444      -0.1628      1.00000
    445      -0.1534      1.00000
    446      -0.1430      1.00000
    447      -0.1361      1.00000
    448      -0.1306      1.00000
    449      -0.1093      1.00000
    450      -0.0894      1.00000
    451      -0.0405      1.00000
    452      -0.0249      1.00000
    453       0.0010      1.00000
    454       0.0212      1.00000
    455       0.0314      1.00000
    456       0.0390      1.00000
    457       0.0459      1.00000
    458       0.0482      1.00000
    459       0.0900      1.00000
    460       0.0946      1.00000
    461       0.1033      1.00000
    462       0.1755      1.00000
    463       0.1923      1.00000
    464       0.2120      1.00000
    465       0.2213      1.00000
    466       0.2234      1.00000
    467       0.2349      1.00000
    468       0.2454      1.00000
    469       0.2636      1.00000
    470       0.2663      1.00000
    471       0.2764      1.00000
    472       0.3137      1.00000
    473       0.3528      1.00000
    474       0.3604      1.00000
    475       0.4047      1.00000
    476       0.4329      1.00000
    477       0.4430      1.00000
    478       0.4526      1.00000
    479       0.4649      1.00000
    480       0.4739      1.00000
    481       0.4894      1.00000
    482       0.5061      1.00000
    483       0.5220      1.00000
    484       0.5468      1.00000
    485       0.5781      1.00000
    486       0.5863      1.00000
    487       0.5946      1.00000
    488       0.6869      1.00000
    489       0.7039      1.00000
    490       0.7283      1.00000
    491       0.7638      1.00000
    492       0.7951      1.00000
    493       0.8126      1.00000
    494       0.8285      1.00000
    495       0.8480      1.00000
    496       0.8729      1.00000
    497       0.8814      1.00000
    498       0.8985      1.00000
    499       0.9027      1.00000
    500       0.9105      1.00000
    501       0.9285      1.00000
    502       0.9334      1.00000
    503       0.9421      1.00000
    504       0.9674      1.00000
    505       0.9748      1.00000
    506       0.9801      1.00000
    507       0.9958      1.00000
    508       1.0252      1.00000
    509       1.0389      1.00000
    510       1.0864      1.00000
    511       1.1099      1.00000
    512       1.1184      1.00000
    513       1.1374      1.00000
    514       1.1444      1.00000
    515       1.1657      1.00000
    516       1.1747      1.00000
    517       1.1991      1.00000
    518       1.2065      1.00000
    519       1.2180      1.00000
    520       1.2379      1.00000
    521       1.2730      1.00000
    522       1.3156      1.00000
    523       1.3544      1.00000
    524       1.3647      1.00000
    525       1.3668      1.00000
    526       1.3727      1.00000
    527       1.4132      1.00000
    528       1.4242      1.00000
    529       1.4440      1.00000
    530       1.4638      1.00000
    531       1.4805      1.00000
    532       1.4997      1.00000
    533       1.5040      1.00000
    534       1.5164      1.00000
    535       1.5204      1.00000
    536       1.5261      1.00000
    537       1.5392      1.00000
    538       1.5518      1.00000
    539       1.5592      1.00000
    540       1.5651      1.00000
    541       1.5783      1.00000
    542       1.5872      1.00000
    543       1.5897      1.00000
    544       1.6015      1.00000
    545       1.6151      1.00000
    546       1.6178      1.00000
    547       1.6274      1.00000
    548       1.6338      1.00000
    549       1.6436      1.00000
    550       1.6475      1.00000
    551       1.6644      1.00000
    552       1.6737      1.00000
    553       1.6962      1.00000
    554       1.7074      1.00000
    555       1.7270      1.00000
    556       1.7378      1.00000
    557       1.7576      1.00000
    558       1.7673      1.00000
    559       1.7833      1.00000
    560       1.7910      1.00000
    561       1.8146      1.00000
    562       1.8361      1.00000
    563       1.8375      1.00000
    564       1.8568      1.00000
    565       1.8603      1.00000
    566       1.9120      1.00000
    567       1.9256      1.00000
    568       1.9527      1.00000
    569       1.9615      1.00000
    570       1.9671      1.00000
    571       2.0024      1.00000
    572       2.0083      1.00000
    573       2.0291      1.00000
    574       2.0507      1.00000
    575       2.0579      1.00000
    576       2.0890      1.00000
    577       2.1118      1.00000
    578       2.2279      1.00000
    579       2.3880      1.00000
    580       7.4220      0.00000
    581       8.2710      0.00000
    582       8.3045      0.00000
    583       9.3877      0.00000
    584       9.4304      0.00000
    585       9.5299      0.00000
    586       9.8529      0.00000
    587       9.8975      0.00000
    588       9.9315      0.00000
    589       9.9735      0.00000
    590      10.0001      0.00000
    591      10.0180      0.00000
    592      10.0275      0.00000
    593      10.0492      0.00000
    594      10.0594      0.00000
    595      10.0699      0.00000
    596      10.2648      0.00000
    597      10.2896      0.00000
    598      10.2978      0.00000
    599      10.3270      0.00000
    600      10.6078      0.00000
    601      10.6415      0.00000
    602      10.6652      0.00000
    603      10.6738      0.00000
    604      10.6955      0.00000
    605      10.7191      0.00000
    606      10.7462      0.00000
    607      10.7659      0.00000
    608      10.7715      0.00000
    609      10.7872      0.00000
    610      10.8303      0.00000
    611      10.8382      0.00000
    612      10.8571      0.00000
    613      10.8791      0.00000
    614      10.9064      0.00000
    615      10.9725      0.00000
    616      10.9928      0.00000
    617      11.0391      0.00000
    618      11.0658      0.00000
    619      11.0719      0.00000
    620      11.0796      0.00000
    621      11.0983      0.00000
    622      11.1097      0.00000
    623      11.1286      0.00000
    624      11.1517      0.00000
    625      11.1932      0.00000
    626      11.2156      0.00000
    627      11.2356      0.00000
    628      11.2576      0.00000
    629      11.2702      0.00000
    630      11.2921      0.00000
    631      11.3117      0.00000
    632      11.3632      0.00000
    633      11.4221      0.00000
    634      11.4392      0.00000
    635      11.4586      0.00000
    636      11.4886      0.00000
    637      11.4932      0.00000
    638      11.5026      0.00000
    639      11.5143      0.00000
    640      11.5269      0.00000
    641      11.5677      0.00000
    642      11.5763      0.00000
    643      11.5943      0.00000
    644      11.6086      0.00000
    645      11.6281      0.00000
    646      11.6848      0.00000
    647      11.7393      0.00000
    648      11.7778      0.00000
    649      11.7821      0.00000
    650      11.8030      0.00000
    651      11.8219      0.00000
    652      11.8408      0.00000
    653      11.8610      0.00000
    654      11.8901      0.00000
    655      11.9243      0.00000
    656      11.9384      0.00000
    657      11.9672      0.00000
    658      11.9861      0.00000
    659      12.0448      0.00000
    660      12.1266      0.00000
    661      12.1828      0.00000
    662      12.2074      0.00000
    663      12.2173      0.00000
    664      12.2337      0.00000
    665      12.2392      0.00000
    666      12.2579      0.00000
    667      12.2881      0.00000
    668      12.3015      0.00000
    669      12.4343      0.00000
    670      12.5102      0.00000
    671      12.5234      0.00000
    672      12.5331      0.00000
    673      12.5688      0.00000
    674      12.5823      0.00000
    675      12.5896      0.00000
    676      12.6094      0.00000
    677      12.6333      0.00000
    678      12.8174      0.00000
    679      12.8597      0.00000
    680      12.9312      0.00000
    681      12.9423      0.00000
    682      12.9827      0.00000
    683      13.0129      0.00000
    684      13.0263      0.00000
    685      13.0504      0.00000
    686      13.0687      0.00000
    687      13.0904      0.00000
    688      13.1154      0.00000
    689      13.1464      0.00000
    690      13.1677      0.00000
    691      13.2240      0.00000
    692      13.2595      0.00000
    693      13.3176      0.00000
    694      13.4858      0.00000
    695      13.5248      0.00000
    696      13.5653      0.00000

 k-point     2 :       0.3333    0.0000    0.0000
  band No.  band energies     occupation 
      1     -55.6178      1.00000
      2     -55.6128      1.00000
      3     -55.5703      1.00000
      4     -55.5508      1.00000
      5     -55.5365      1.00000
      6     -55.5343      1.00000
      7     -55.5214      1.00000
      8     -55.5210      1.00000
      9     -55.5209      1.00000
     10     -55.5197      1.00000
     11     -55.5128      1.00000
     12     -55.5010      1.00000
     13     -55.4929      1.00000
     14     -55.4902      1.00000
     15     -55.4832      1.00000
     16     -55.4793      1.00000
     17     -55.4648      1.00000
     18     -55.4586      1.00000
     19     -55.4561      1.00000
     20     -55.4516      1.00000
     21     -55.4389      1.00000
     22     -55.4378      1.00000
     23     -55.4368      1.00000
     24     -55.4192      1.00000
     25     -55.4191      1.00000
     26     -55.4158      1.00000
     27     -55.4095      1.00000
     28     -55.4013      1.00000
     29     -55.4007      1.00000
     30     -55.3934      1.00000
     31     -55.3879      1.00000
     32     -55.3787      1.00000
     33     -55.3778      1.00000
     34     -55.3696      1.00000
     35     -55.3682      1.00000
     36     -55.3667      1.00000
     37     -55.3635      1.00000
     38     -55.3553      1.00000
     39     -55.3547      1.00000
     40     -55.3502      1.00000
     41     -55.3465      1.00000
     42     -55.3462      1.00000
     43     -55.3172      1.00000
     44     -55.3169      1.00000
     45     -55.3141      1.00000
     46     -55.3140      1.00000
     47     -55.3038      1.00000
     48     -55.3019      1.00000
     49     -55.3016      1.00000
     50     -55.2973      1.00000
     51     -55.2969      1.00000
     52     -55.2940      1.00000
     53     -55.2877      1.00000
     54     -55.2844      1.00000
     55     -55.2754      1.00000
     56     -55.2745      1.00000
     57     -55.2730      1.00000
     58     -55.2703      1.00000
     59     -55.2702      1.00000
     60     -55.2684      1.00000
     61     -55.2553      1.00000
     62     -55.2414      1.00000
     63     -55.2397      1.00000
     64     -55.2364      1.00000
     65     -55.2265      1.00000
     66     -55.2194      1.00000
     67     -55.2185      1.00000
     68     -55.1881      1.00000
     69     -55.1797      1.00000
     70     -51.8479      1.00000
     71     -50.4066      1.00000
     72     -50.1144      1.00000
     73     -18.9787      1.00000
     74     -18.7947      1.00000
     75     -18.7469      1.00000
     76     -18.6255      1.00000
     77     -18.5258      1.00000
     78     -18.4677      1.00000
     79     -18.4370      1.00000
     80     -18.3984      1.00000
     81     -18.3751      1.00000
     82     -18.3685      1.00000
     83     -18.3537      1.00000
     84     -18.3286      1.00000
     85     -18.3081      1.00000
     86     -18.2979      1.00000
     87     -18.2901      1.00000
     88     -18.2506      1.00000
     89     -18.2366      1.00000
     90     -18.2173      1.00000
     91     -18.2094      1.00000
     92     -18.2012      1.00000
     93     -18.1912      1.00000
     94     -18.1734      1.00000
     95     -18.1619      1.00000
     96     -18.1394      1.00000
     97     -18.1302      1.00000
     98     -18.1272      1.00000
     99     -18.0754      1.00000
    100     -16.3213      1.00000
    101     -16.2304      1.00000
    102     -16.1846      1.00000
    103     -16.1813      1.00000
    104     -16.1586      1.00000
    105     -16.1500      1.00000
    106     -16.1243      1.00000
    107     -16.1043      1.00000
    108     -16.0898      1.00000
    109     -16.0820      1.00000
    110     -16.0759      1.00000
    111     -16.0696      1.00000
    112     -16.0597      1.00000
    113     -16.0545      1.00000
    114     -16.0403      1.00000
    115     -16.0359      1.00000
    116     -16.0298      1.00000
    117     -16.0212      1.00000
    118     -16.0062      1.00000
    119     -15.9969      1.00000
    120     -15.9862      1.00000
    121     -15.9797      1.00000
    122     -15.9540      1.00000
    123     -15.9360      1.00000
    124     -15.9170      1.00000
    125     -15.9080      1.00000
    126     -15.8744      1.00000
    127     -15.8484      1.00000
    128     -15.8392      1.00000
    129     -15.8254      1.00000
    130     -15.8158      1.00000
    131     -15.8073      1.00000
    132     -15.7995      1.00000
    133     -15.7933      1.00000
    134     -15.7851      1.00000
    135     -15.7757      1.00000
    136     -15.7715      1.00000
    137     -15.7636      1.00000
    138     -15.7611      1.00000
    139     -15.7538      1.00000
    140     -15.7485      1.00000
    141     -15.7411      1.00000
    142     -15.7368      1.00000
    143     -15.7316      1.00000
    144     -15.7268      1.00000
    145     -15.7241      1.00000
    146     -15.7125      1.00000
    147     -15.7010      1.00000
    148     -15.6952      1.00000
    149     -15.6884      1.00000
    150     -15.6790      1.00000
    151     -15.6715      1.00000
    152     -15.6599      1.00000
    153     -15.6528      1.00000
    154     -15.6497      1.00000
    155     -15.6413      1.00000
    156     -15.6285      1.00000
    157     -15.6272      1.00000
    158     -15.6178      1.00000
    159     -15.6121      1.00000
    160     -15.6041      1.00000
    161     -15.6003      1.00000
    162     -15.5986      1.00000
    163     -15.5897      1.00000
    164     -15.5859      1.00000
    165     -15.5754      1.00000
    166     -15.5709      1.00000
    167     -15.5505      1.00000
    168     -15.5193      1.00000
    169     -15.5023      1.00000
    170     -15.4758      1.00000
    171     -15.4407      1.00000
    172      -7.0167      1.00000
    173      -6.9046      1.00000
    174      -6.8857      1.00000
    175      -6.8652      1.00000
    176      -6.8552      1.00000
    177      -6.8391      1.00000
    178      -6.8229      1.00000
    179      -6.7990      1.00000
    180      -6.7631      1.00000
    181      -6.7098      1.00000
    182      -6.7038      1.00000
    183      -6.6458      1.00000
    184      -6.6358      1.00000
    185      -6.5639      1.00000
    186      -6.5212      1.00000
    187      -6.5040      1.00000
    188      -6.4915      1.00000
    189      -6.4707      1.00000
    190      -6.4507      1.00000
    191      -6.4255      1.00000
    192      -6.4046      1.00000
    193      -6.3325      1.00000
    194      -6.2471      1.00000
    195      -6.0980      1.00000
    196      -6.0151      1.00000
    197      -5.9810      1.00000
    198      -5.9774      1.00000
    199      -5.9657      1.00000
    200      -5.9423      1.00000
    201      -5.9370      1.00000
    202      -5.9101      1.00000
    203      -5.9009      1.00000
    204      -5.8588      1.00000
    205      -5.8387      1.00000
    206      -5.8351      1.00000
    207      -5.8160      1.00000
    208      -5.8043      1.00000
    209      -5.7941      1.00000
    210      -5.7829      1.00000
    211      -5.7793      1.00000
    212      -5.7720      1.00000
    213      -5.7503      1.00000
    214      -5.6696      1.00000
    215      -5.6369      1.00000
    216      -5.6146      1.00000
    217      -5.5459      1.00000
    218      -5.5310      1.00000
    219      -5.5027      1.00000
    220      -5.4683      1.00000
    221      -5.4085      1.00000
    222      -5.3863      1.00000
    223      -5.3569      1.00000
    224      -5.3073      1.00000
    225      -5.2987      1.00000
    226      -5.2753      1.00000
    227      -5.2601      1.00000
    228      -5.2436      1.00000
    229      -5.2357      1.00000
    230      -5.2224      1.00000
    231      -5.2148      1.00000
    232      -5.2053      1.00000
    233      -5.2047      1.00000
    234      -5.1906      1.00000
    235      -5.1867      1.00000
    236      -5.1750      1.00000
    237      -5.1655      1.00000
    238      -5.1542      1.00000
    239      -5.1446      1.00000
    240      -5.1399      1.00000
    241      -5.1280      1.00000
    242      -5.1182      1.00000
    243      -5.1094      1.00000
    244      -5.1035      1.00000
    245      -5.0955      1.00000
    246      -5.0899      1.00000
    247      -5.0847      1.00000
    248      -5.0827      1.00000
    249      -5.0744      1.00000
    250      -5.0657      1.00000
    251      -5.0583      1.00000
    252      -5.0551      1.00000
    253      -5.0520      1.00000
    254      -5.0476      1.00000
    255      -5.0430      1.00000
    256      -5.0389      1.00000
    257      -5.0372      1.00000
    258      -5.0316      1.00000
    259      -5.0243      1.00000
    260      -5.0229      1.00000
    261      -5.0206      1.00000
    262      -5.0106      1.00000
    263      -5.0010      1.00000
    264      -4.9978      1.00000
    265      -4.9867      1.00000
    266      -4.9842      1.00000
    267      -4.9758      1.00000
    268      -4.9699      1.00000
    269      -4.9645      1.00000
    270      -4.9609      1.00000
    271      -4.9561      1.00000
    272      -4.9516      1.00000
    273      -4.9468      1.00000
    274      -4.9411      1.00000
    275      -4.9350      1.00000
    276      -4.9255      1.00000
    277      -4.9168      1.00000
    278      -4.9131      1.00000
    279      -4.9079      1.00000
    280      -4.8998      1.00000
    281      -4.8967      1.00000
    282      -4.8873      1.00000
    283      -4.8816      1.00000
    284      -4.8786      1.00000
    285      -4.8705      1.00000
    286      -4.8680      1.00000
    287      -4.8515      1.00000
    288      -4.8311      1.00000
    289      -4.8171      1.00000
    290      -4.8093      1.00000
    291      -4.8007      1.00000
    292      -4.7878      1.00000
    293      -4.7489      1.00000
    294      -4.7220      1.00000
    295      -4.6936      1.00000
    296      -4.6496      1.00000
    297      -4.6423      1.00000
    298      -4.6158      1.00000
    299      -4.6076      1.00000
    300      -4.5859      1.00000
    301      -4.5751      1.00000
    302      -4.4636      1.00000
    303      -4.4095      1.00000
    304      -4.3699      1.00000
    305      -4.3551      1.00000
    306      -4.3426      1.00000
    307      -4.2890      1.00000
    308      -4.2489      1.00000
    309      -4.1864      1.00000
    310      -4.1539      1.00000
    311      -4.1154      1.00000
    312      -4.1004      1.00000
    313      -3.8927      1.00000
    314      -3.8774      1.00000
    315      -3.7539      1.00000
    316      -3.6949      1.00000
    317      -3.6089      1.00000
    318      -3.4877      1.00000
    319      -3.4390      1.00000
    320      -3.3915      1.00000
    321      -3.3787      1.00000
    322      -3.3470      1.00000
    323      -3.2734      1.00000
    324      -3.2357      1.00000
    325      -3.1470      1.00000
    326      -3.1425      1.00000
    327      -3.1157      1.00000
    328      -3.1029      1.00000
    329      -3.0946      1.00000
    330      -3.0727      1.00000
    331      -3.0670      1.00000
    332      -3.0553      1.00000
    333      -3.0479      1.00000
    334      -3.0424      1.00000
    335      -3.0140      1.00000
    336      -3.0015      1.00000
    337      -2.9848      1.00000
    338      -2.9242      1.00000
    339      -2.9125      1.00000
    340      -2.8972      1.00000
    341      -2.8805      1.00000
    342      -2.8499      1.00000
    343      -2.8285      1.00000
    344      -2.8232      1.00000
    345      -2.8112      1.00000
    346      -2.7969      1.00000
    347      -2.7878      1.00000
    348      -2.7727      1.00000
    349      -2.7431      1.00000
    350      -2.7359      1.00000
    351      -2.7180      1.00000
    352      -2.7128      1.00000
    353      -2.6904      1.00000
    354      -2.6656      1.00000
    355      -2.6592      1.00000
    356      -2.6523      1.00000
    357      -2.6299      1.00000
    358      -2.6161      1.00000
    359      -2.6035      1.00000
    360      -2.5601      1.00000
    361      -2.5166      1.00000
    362      -2.5102      1.00000
    363      -2.4778      1.00000
    364      -2.4550      1.00000
    365      -2.4382      1.00000
    366      -2.4229      1.00000
    367      -2.3634      1.00000
    368      -2.3525      1.00000
    369      -2.3381      1.00000
    370      -2.3342      1.00000
    371      -2.3098      1.00000
    372      -2.3040      1.00000
    373      -2.2834      1.00000
    374      -2.2490      1.00000
    375      -2.2387      1.00000
    376      -2.2317      1.00000
    377      -2.2245      1.00000
    378      -2.2060      1.00000
    379      -2.1708      1.00000
    380      -2.1222      1.00000
    381      -2.0214      1.00000
    382      -1.9662      1.00000
    383      -1.6898      1.00000
    384      -1.5490      1.00000
    385      -1.5040      1.00000
    386      -1.4067      1.00000
    387      -1.3897      1.00000
    388      -1.3387      1.00000
    389      -1.3148      1.00000
    390      -1.2653      1.00000
    391      -1.2552      1.00000
    392      -1.2490      1.00000
    393      -1.2190      1.00000
    394      -1.2072      1.00000
    395      -1.1806      1.00000
    396      -1.1202      1.00000
    397      -1.0960      1.00000
    398      -1.0311      1.00000
    399      -1.0096      1.00000
    400      -0.9913      1.00000
    401      -0.9599      1.00000
    402      -0.9315      1.00000
    403      -0.9131      1.00000
    404      -0.9067      1.00000
    405      -0.8942      1.00000
    406      -0.8797      1.00000
    407      -0.8641      1.00000
    408      -0.8422      1.00000
    409      -0.8137      1.00000
    410      -0.7957      1.00000
    411      -0.7730      1.00000
    412      -0.7628      1.00000
    413      -0.7330      1.00000
    414      -0.7129      1.00000
    415      -0.7080      1.00000
    416      -0.6754      1.00000
    417      -0.6621      1.00000
    418      -0.6314      1.00000
    419      -0.6176      1.00000
    420      -0.5653      1.00000
    421      -0.5311      1.00000
    422      -0.5131      1.00000
    423      -0.4846      1.00000
    424      -0.4465      1.00000
    425      -0.4407      1.00000
    426      -0.4329      1.00000
    427      -0.4099      1.00000
    428      -0.3923      1.00000
    429      -0.3747      1.00000
    430      -0.3652      1.00000
    431      -0.3560      1.00000
    432      -0.3519      1.00000
    433      -0.3291      1.00000
    434      -0.3261      1.00000
    435      -0.3026      1.00000
    436      -0.2577      1.00000
    437      -0.2411      1.00000
    438      -0.1944      1.00000
    439      -0.1911      1.00000
    440      -0.1772      1.00000
    441      -0.1672      1.00000
    442      -0.1616      1.00000
    443      -0.1460      1.00000
    444      -0.1175      1.00000
    445      -0.1038      1.00000
    446      -0.0938      1.00000
    447      -0.0627      1.00000
    448      -0.0540      1.00000
    449      -0.0456      1.00000
    450      -0.0348      1.00000
    451      -0.0281      1.00000
    452      -0.0133      1.00000
    453       0.0075      1.00000
    454       0.0306      1.00000
    455       0.0498      1.00000
    456       0.0747      1.00000
    457       0.0916      1.00000
    458       0.1035      1.00000
    459       0.1109      1.00000
    460       0.1180      1.00000
    461       0.1380      1.00000
    462       0.1530      1.00000
    463       0.1618      1.00000
    464       0.1806      1.00000
    465       0.2015      1.00000
    466       0.2098      1.00000
    467       0.2203      1.00000
    468       0.2331      1.00000
    469       0.2403      1.00000
    470       0.2536      1.00000
    471       0.2739      1.00000
    472       0.2859      1.00000
    473       0.2917      1.00000
    474       0.3047      1.00000
    475       0.3167      1.00000
    476       0.3301      1.00000
    477       0.3516      1.00000
    478       0.3613      1.00000
    479       0.4142      1.00000
    480       0.4267      1.00000
    481       0.4823      1.00000
    482       0.5006      1.00000
    483       0.5178      1.00000
    484       0.5364      1.00000
    485       0.5437      1.00000
    486       0.5619      1.00000
    487       0.5770      1.00000
    488       0.5882      1.00000
    489       0.6736      1.00000
    490       0.6988      1.00000
    491       0.7778      1.00000
    492       0.7886      1.00000
    493       0.7986      1.00000
    494       0.8047      1.00000
    495       0.8249      1.00000
    496       0.8280      1.00000
    497       0.8303      1.00000
    498       0.8546      1.00000
    499       0.8765      1.00000
    500       0.8969      1.00000
    501       0.9202      1.00000
    502       0.9231      1.00000
    503       0.9457      1.00000
    504       0.9642      1.00000
    505       0.9738      1.00000
    506       1.0025      1.00000
    507       1.0227      1.00000
    508       1.0349      1.00000
    509       1.0451      1.00000
    510       1.0547      1.00000
    511       1.0596      1.00000
    512       1.0799      1.00000
    513       1.1107      1.00000
    514       1.1486      1.00000
    515       1.1570      1.00000
    516       1.1759      1.00000
    517       1.2001      1.00000
    518       1.2045      1.00000
    519       1.2245      1.00000
    520       1.2346      1.00000
    521       1.2484      1.00000
    522       1.2942      1.00000
    523       1.3257      1.00000
    524       1.3326      1.00000
    525       1.3392      1.00000
    526       1.3469      1.00000
    527       1.3602      1.00000
    528       1.3701      1.00000
    529       1.3844      1.00000
    530       1.3978      1.00000
    531       1.4051      1.00000
    532       1.4252      1.00000
    533       1.4459      1.00000
    534       1.4933      1.00000
    535       1.4982      1.00000
    536       1.5268      1.00000
    537       1.5540      1.00000
    538       1.5695      1.00000
    539       1.5790      1.00000
    540       1.5906      1.00000
    541       1.5979      1.00000
    542       1.6086      1.00000
    543       1.6265      1.00000
    544       1.6327      1.00000
    545       1.6379      1.00000
    546       1.6697      1.00000
    547       1.6772      1.00000
    548       1.6999      1.00000
    549       1.7121      1.00000
    550       1.7301      1.00000
    551       1.7472      1.00000
    552       1.7537      1.00000
    553       1.7615      1.00000
    554       1.7726      1.00000
    555       1.7790      1.00000
    556       1.7875      1.00000
    557       1.7960      1.00000
    558       1.8009      1.00000
    559       1.8136      1.00000
    560       1.8209      1.00000
    561       1.8280      1.00000
    562       1.8495      1.00000
    563       1.8557      1.00000
    564       1.8716      1.00000
    565       1.8808      1.00000
    566       1.8973      1.00000
    567       1.9145      1.00000
    568       1.9217      1.00000
    569       1.9287      1.00000
    570       1.9450      1.00000
    571       1.9622      1.00000
    572       1.9818      1.00000
    573       1.9935      1.00000
    574       2.0012      1.00000
    575       2.0257      1.00000
    576       2.0349      1.00000
    577       2.0643      1.00000
    578       2.2117      1.00000
    579       2.3827      1.00000
    580       7.7827      0.00000
    581       8.5309      0.00000
    582       8.5749      0.00000
    583       8.6775      0.00000
    584       9.2515      0.00000
    585       9.2815      0.00000
    586       9.4339      0.00000
    587       9.4749      0.00000
    588       9.9524      0.00000
    589      10.0111      0.00000
    590      10.0277      0.00000
    591      10.0431      0.00000
    592      10.0637      0.00000
    593      10.0796      0.00000
    594      10.1574      0.00000
    595      10.2627      0.00000
    596      10.2874      0.00000
    597      10.3912      0.00000
    598      10.4332      0.00000
    599      10.4984      0.00000
    600      10.6055      0.00000
    601      10.6401      0.00000
    602      10.6589      0.00000
    603      10.6703      0.00000
    604      10.6803      0.00000
    605      10.7045      0.00000
    606      10.7380      0.00000
    607      10.8365      0.00000
    608      10.8460      0.00000
    609      10.8805      0.00000
    610      10.9121      0.00000
    611      10.9337      0.00000
    612      10.9458      0.00000
    613      10.9791      0.00000
    614      11.0006      0.00000
    615      11.0097      0.00000
    616      11.0450      0.00000
    617      11.0675      0.00000
    618      11.0791      0.00000
    619      11.1035      0.00000
    620      11.1203      0.00000
    621      11.1361      0.00000
    622      11.1722      0.00000
    623      11.1968      0.00000
    624      11.2213      0.00000
    625      11.2387      0.00000
    626      11.2575      0.00000
    627      11.2782      0.00000
    628      11.2846      0.00000
    629      11.3058      0.00000
    630      11.3230      0.00000
    631      11.3461      0.00000
    632      11.3747      0.00000
    633      11.3900      0.00000
    634      11.3972      0.00000
    635      11.4017      0.00000
    636      11.4091      0.00000
    637      11.4181      0.00000
    638      11.4480      0.00000
    639      11.4592      0.00000
    640      11.4733      0.00000
    641      11.4963      0.00000
    642      11.5443      0.00000
    643      11.5501      0.00000
    644      11.6813      0.00000
    645      11.7020      0.00000
    646      11.7263      0.00000
    647      11.7628      0.00000
    648      11.7899      0.00000
    649      11.8088      0.00000
    650      11.8382      0.00000
    651      11.8519      0.00000
    652      11.8577      0.00000
    653      11.8828      0.00000
    654      11.8945      0.00000
    655      11.9062      0.00000
    656      11.9245      0.00000
    657      11.9465      0.00000
    658      11.9630      0.00000
    659      11.9980      0.00000
    660      12.0286      0.00000
    661      12.0781      0.00000
    662      12.0862      0.00000
    663      12.1465      0.00000
    664      12.1643      0.00000
    665      12.1758      0.00000
    666      12.1875      0.00000
    667      12.2072      0.00000
    668      12.2221      0.00000
    669      12.2388      0.00000
    670      12.5210      0.00000
    671      12.5782      0.00000
    672      12.5885      0.00000
    673      12.6650      0.00000
    674      12.7503      0.00000
    675      12.7860      0.00000
    676      12.8132      0.00000
    677      12.8434      0.00000
    678      12.8757      0.00000
    679      12.9003      0.00000
    680      12.9093      0.00000
    681      12.9184      0.00000
    682      12.9932      0.00000
    683      13.0117      0.00000
    684      13.0228      0.00000
    685      13.0410      0.00000
    686      13.0621      0.00000
    687      13.0742      0.00000
    688      13.0906      0.00000
    689      13.1143      0.00000
    690      13.1231      0.00000
    691      13.1779      0.00000
    692      13.2344      0.00000
    693      13.2635      0.00000
    694      13.3948      0.00000
    695      13.4134      0.00000
    696      13.4420      0.00000

 k-point     3 :       0.0000    0.0000    0.3333
  band No.  band energies     occupation 
      1     -55.6178      1.00000
      2     -55.6128      1.00000
      3     -55.5703      1.00000
      4     -55.5508      1.00000
      5     -55.5365      1.00000
      6     -55.5343      1.00000
      7     -55.5214      1.00000
      8     -55.5210      1.00000
      9     -55.5209      1.00000
     10     -55.5197      1.00000
     11     -55.5128      1.00000
     12     -55.5010      1.00000
     13     -55.4929      1.00000
     14     -55.4902      1.00000
     15     -55.4832      1.00000
     16     -55.4793      1.00000
     17     -55.4648      1.00000
     18     -55.4586      1.00000
     19     -55.4561      1.00000
     20     -55.4516      1.00000
     21     -55.4389      1.00000
     22     -55.4378      1.00000
     23     -55.4368      1.00000
     24     -55.4192      1.00000
     25     -55.4191      1.00000
     26     -55.4158      1.00000
     27     -55.4095      1.00000
     28     -55.4013      1.00000
     29     -55.4007      1.00000
     30     -55.3934      1.00000
     31     -55.3879      1.00000
     32     -55.3787      1.00000
     33     -55.3778      1.00000
     34     -55.3696      1.00000
     35     -55.3682      1.00000
     36     -55.3667      1.00000
     37     -55.3635      1.00000
     38     -55.3553      1.00000
     39     -55.3547      1.00000
     40     -55.3502      1.00000
     41     -55.3465      1.00000
     42     -55.3462      1.00000
     43     -55.3172      1.00000
     44     -55.3169      1.00000
     45     -55.3141      1.00000
     46     -55.3140      1.00000
     47     -55.3038      1.00000
     48     -55.3019      1.00000
     49     -55.3016      1.00000
     50     -55.2973      1.00000
     51     -55.2969      1.00000
     52     -55.2940      1.00000
     53     -55.2877      1.00000
     54     -55.2844      1.00000
     55     -55.2754      1.00000
     56     -55.2745      1.00000
     57     -55.2730      1.00000
     58     -55.2703      1.00000
     59     -55.2702      1.00000
     60     -55.2684      1.00000
     61     -55.2553      1.00000
     62     -55.2414      1.00000
     63     -55.2397      1.00000
     64     -55.2364      1.00000
     65     -55.2265      1.00000
     66     -55.2194      1.00000
     67     -55.2185      1.00000
     68     -55.1881      1.00000
     69     -55.1797      1.00000
     70     -51.8479      1.00000
     71     -50.4066      1.00000
     72     -50.1144      1.00000
     73     -18.9814      1.00000
     74     -18.7951      1.00000
     75     -18.7466      1.00000
     76     -18.6235      1.00000
     77     -18.5298      1.00000
     78     -18.4702      1.00000
     79     -18.4482      1.00000
     80     -18.4192      1.00000
     81     -18.3793      1.00000
     82     -18.3364      1.00000
     83     -18.3109      1.00000
     84     -18.3069      1.00000
     85     -18.2945      1.00000
     86     -18.2826      1.00000
     87     -18.2654      1.00000
     88     -18.2594      1.00000
     89     -18.2461      1.00000
     90     -18.2275      1.00000
     91     -18.2180      1.00000
     92     -18.2135      1.00000
     93     -18.2044      1.00000
     94     -18.1984      1.00000
     95     -18.1775      1.00000
     96     -18.1664      1.00000
     97     -18.1320      1.00000
     98     -18.1162      1.00000
     99     -18.0688      1.00000
    100     -16.3168      1.00000
    101     -16.2180      1.00000
    102     -16.1809      1.00000
    103     -16.1761      1.00000
    104     -16.1605      1.00000
    105     -16.1506      1.00000
    106     -16.1421      1.00000
    107     -16.1250      1.00000
    108     -16.1083      1.00000
    109     -16.1046      1.00000
    110     -16.0873      1.00000
    111     -16.0646      1.00000
    112     -16.0382      1.00000
    113     -16.0140      1.00000
    114     -16.0072      1.00000
    115     -16.0016      1.00000
    116     -15.9913      1.00000
    117     -15.9803      1.00000
    118     -15.9776      1.00000
    119     -15.9716      1.00000
    120     -15.9687      1.00000
    121     -15.9569      1.00000
    122     -15.9537      1.00000
    123     -15.9493      1.00000
    124     -15.9159      1.00000
    125     -15.9112      1.00000
    126     -15.9030      1.00000
    127     -15.8929      1.00000
    128     -15.8829      1.00000
    129     -15.8693      1.00000
    130     -15.8619      1.00000
    131     -15.8571      1.00000
    132     -15.8355      1.00000
    133     -15.8227      1.00000
    134     -15.8080      1.00000
    135     -15.7973      1.00000
    136     -15.7850      1.00000
    137     -15.7719      1.00000
    138     -15.7505      1.00000
    139     -15.7432      1.00000
    140     -15.7401      1.00000
    141     -15.7350      1.00000
    142     -15.7295      1.00000
    143     -15.7218      1.00000
    144     -15.7183      1.00000
    145     -15.7092      1.00000
    146     -15.7055      1.00000
    147     -15.6963      1.00000
    148     -15.6950      1.00000
    149     -15.6856      1.00000
    150     -15.6699      1.00000
    151     -15.6614      1.00000
    152     -15.6558      1.00000
    153     -15.6492      1.00000
    154     -15.6418      1.00000
    155     -15.6391      1.00000
    156     -15.6325      1.00000
    157     -15.6241      1.00000
    158     -15.6219      1.00000
    159     -15.6095      1.00000
    160     -15.6033      1.00000
    161     -15.6016      1.00000
    162     -15.5978      1.00000
    163     -15.5878      1.00000
    164     -15.5777      1.00000
    165     -15.5721      1.00000
    166     -15.5617      1.00000
    167     -15.5416      1.00000
    168     -15.5135      1.00000
    169     -15.5017      1.00000
    170     -15.4680      1.00000
    171     -15.4417      1.00000
    172      -7.1357      1.00000
    173      -6.9809      1.00000
    174      -6.9614      1.00000
    175      -6.9540      1.00000
    176      -6.9449      1.00000
    177      -6.9276      1.00000
    178      -6.9263      1.00000
    179      -6.9212      1.00000
    180      -6.9057      1.00000
    181      -6.8921      1.00000
    182      -6.8614      1.00000
    183      -6.7345      1.00000
    184      -6.3867      1.00000
    185      -6.3431      1.00000
    186      -6.3174      1.00000
    187      -6.2799      1.00000
    188      -6.2700      1.00000
    189      -6.2170      1.00000
    190      -6.1455      1.00000
    191      -6.1196      1.00000
    192      -6.1007      1.00000
    193      -6.0911      1.00000
    194      -6.0848      1.00000
    195      -6.0772      1.00000
    196      -6.0669      1.00000
    197      -6.0415      1.00000
    198      -6.0340      1.00000
    199      -6.0195      1.00000
    200      -6.0144      1.00000
    201      -5.9887      1.00000
    202      -5.9600      1.00000
    203      -5.9268      1.00000
    204      -5.9023      1.00000
    205      -5.8853      1.00000
    206      -5.8743      1.00000
    207      -5.8656      1.00000
    208      -5.8397      1.00000
    209      -5.8246      1.00000
    210      -5.8128      1.00000
    211      -5.8050      1.00000
    212      -5.7031      1.00000
    213      -5.6772      1.00000
    214      -5.6391      1.00000
    215      -5.6002      1.00000
    216      -5.5805      1.00000
    217      -5.5601      1.00000
    218      -5.5470      1.00000
    219      -5.4946      1.00000
    220      -5.4848      1.00000
    221      -5.4640      1.00000
    222      -5.4390      1.00000
    223      -5.4226      1.00000
    224      -5.3432      1.00000
    225      -5.3191      1.00000
    226      -5.3047      1.00000
    227      -5.2902      1.00000
    228      -5.2795      1.00000
    229      -5.2613      1.00000
    230      -5.2584      1.00000
    231      -5.2448      1.00000
    232      -5.2239      1.00000
    233      -5.2187      1.00000
    234      -5.2121      1.00000
    235      -5.2006      1.00000
    236      -5.1841      1.00000
    237      -5.1714      1.00000
    238      -5.1609      1.00000
    239      -5.1475      1.00000
    240      -5.1425      1.00000
    241      -5.1330      1.00000
    242      -5.1277      1.00000
    243      -5.1236      1.00000
    244      -5.1189      1.00000
    245      -5.1115      1.00000
    246      -5.1034      1.00000
    247      -5.0983      1.00000
    248      -5.0888      1.00000
    249      -5.0876      1.00000
    250      -5.0780      1.00000
    251      -5.0753      1.00000
    252      -5.0674      1.00000
    253      -5.0655      1.00000
    254      -5.0569      1.00000
    255      -5.0461      1.00000
    256      -5.0419      1.00000
    257      -5.0359      1.00000
    258      -5.0281      1.00000
    259      -5.0249      1.00000
    260      -5.0202      1.00000
    261      -5.0133      1.00000
    262      -5.0100      1.00000
    263      -4.9996      1.00000
    264      -4.9944      1.00000
    265      -4.9899      1.00000
    266      -4.9874      1.00000
    267      -4.9864      1.00000
    268      -4.9793      1.00000
    269      -4.9741      1.00000
    270      -4.9699      1.00000
    271      -4.9688      1.00000
    272      -4.9611      1.00000
    273      -4.9549      1.00000
    274      -4.9508      1.00000
    275      -4.9461      1.00000
    276      -4.9433      1.00000
    277      -4.9353      1.00000
    278      -4.9313      1.00000
    279      -4.9285      1.00000
    280      -4.9246      1.00000
    281      -4.9124      1.00000
    282      -4.9058      1.00000
    283      -4.9039      1.00000
    284      -4.9031      1.00000
    285      -4.8983      1.00000
    286      -4.8957      1.00000
    287      -4.8847      1.00000
    288      -4.8777      1.00000
    289      -4.8645      1.00000
    290      -4.8618      1.00000
    291      -4.8515      1.00000
    292      -4.8474      1.00000
    293      -4.8409      1.00000
    294      -4.8263      1.00000
    295      -4.7581      1.00000
    296      -4.7495      1.00000
    297      -4.7355      1.00000
    298      -4.7262      1.00000
    299      -4.6628      1.00000
    300      -4.5926      1.00000
    301      -4.4445      1.00000
    302      -4.4316      1.00000
    303      -4.3617      1.00000
    304      -4.3100      1.00000
    305      -4.2405      1.00000
    306      -4.2039      1.00000
    307      -4.1631      1.00000
    308      -4.1361      1.00000
    309      -4.1192      1.00000
    310      -3.9990      1.00000
    311      -3.9529      1.00000
    312      -3.8883      1.00000
    313      -3.8707      1.00000
    314      -3.8210      1.00000
    315      -3.7544      1.00000
    316      -3.6277      1.00000
    317      -3.6018      1.00000
    318      -3.5146      1.00000
    319      -3.4677      1.00000
    320      -3.3910      1.00000
    321      -3.2886      1.00000
    322      -3.2699      1.00000
    323      -3.2371      1.00000
    324      -3.2254      1.00000
    325      -3.2127      1.00000
    326      -3.1929      1.00000
    327      -3.1824      1.00000
    328      -3.1782      1.00000
    329      -3.1536      1.00000
    330      -3.1328      1.00000
    331      -3.1165      1.00000
    332      -3.1014      1.00000
    333      -3.0424      1.00000
    334      -3.0204      1.00000
    335      -2.9781      1.00000
    336      -2.9713      1.00000
    337      -2.9401      1.00000
    338      -2.9239      1.00000
    339      -2.9091      1.00000
    340      -2.8970      1.00000
    341      -2.8835      1.00000
    342      -2.8787      1.00000
    343      -2.8685      1.00000
    344      -2.8430      1.00000
    345      -2.8291      1.00000
    346      -2.8187      1.00000
    347      -2.8116      1.00000
    348      -2.7904      1.00000
    349      -2.7759      1.00000
    350      -2.7730      1.00000
    351      -2.7554      1.00000
    352      -2.7410      1.00000
    353      -2.7291      1.00000
    354      -2.7189      1.00000
    355      -2.7000      1.00000
    356      -2.6877      1.00000
    357      -2.6798      1.00000
    358      -2.6669      1.00000
    359      -2.6544      1.00000
    360      -2.6514      1.00000
    361      -2.6061      1.00000
    362      -2.5905      1.00000
    363      -2.5753      1.00000
    364      -2.5638      1.00000
    365      -2.5469      1.00000
    366      -2.5180      1.00000
    367      -2.5050      1.00000
    368      -2.4479      1.00000
    369      -2.3877      1.00000
    370      -2.3494      1.00000
    371      -2.2637      1.00000
    372      -2.2422      1.00000
    373      -2.2188      1.00000
    374      -2.2098      1.00000
    375      -2.1554      1.00000
    376      -2.1432      1.00000
    377      -2.0904      1.00000
    378      -2.0729      1.00000
    379      -2.0596      1.00000
    380      -1.9695      1.00000
    381      -1.8868      1.00000
    382      -1.7971      1.00000
    383      -1.5851      1.00000
    384      -1.5055      1.00000
    385      -1.4698      1.00000
    386      -1.4480      1.00000
    387      -1.3834      1.00000
    388      -1.3708      1.00000
    389      -1.2947      1.00000
    390      -1.2743      1.00000
    391      -1.2086      1.00000
    392      -1.1837      1.00000
    393      -1.1643      1.00000
    394      -1.1144      1.00000
    395      -1.1043      1.00000
    396      -1.0902      1.00000
    397      -1.0576      1.00000
    398      -1.0454      1.00000
    399      -1.0225      1.00000
    400      -1.0156      1.00000
    401      -0.9764      1.00000
    402      -0.9683      1.00000
    403      -0.9560      1.00000
    404      -0.9444      1.00000
    405      -0.9319      1.00000
    406      -0.9107      1.00000
    407      -0.8922      1.00000
    408      -0.8792      1.00000
    409      -0.8553      1.00000
    410      -0.8444      1.00000
    411      -0.8340      1.00000
    412      -0.7966      1.00000
    413      -0.7625      1.00000
    414      -0.7150      1.00000
    415      -0.6780      1.00000
    416      -0.6706      1.00000
    417      -0.6422      1.00000
    418      -0.6129      1.00000
    419      -0.5869      1.00000
    420      -0.5631      1.00000
    421      -0.5418      1.00000
    422      -0.5200      1.00000
    423      -0.4871      1.00000
    424      -0.4673      1.00000
    425      -0.4579      1.00000
    426      -0.4461      1.00000
    427      -0.4218      1.00000
    428      -0.4121      1.00000
    429      -0.3865      1.00000
    430      -0.3695      1.00000
    431      -0.3646      1.00000
    432      -0.3195      1.00000
    433      -0.2994      1.00000
    434      -0.2833      1.00000
    435      -0.2726      1.00000
    436      -0.2516      1.00000
    437      -0.2422      1.00000
    438      -0.2312      1.00000
    439      -0.1993      1.00000
    440      -0.1900      1.00000
    441      -0.1697      1.00000
    442      -0.1564      1.00000
    443      -0.1443      1.00000
    444      -0.1367      1.00000
    445      -0.1193      1.00000
    446      -0.1048      1.00000
    447      -0.0869      1.00000
    448      -0.0707      1.00000
    449      -0.0508      1.00000
    450      -0.0280      1.00000
    451      -0.0077      1.00000
    452      -0.0001      1.00000
    453       0.0244      1.00000
    454       0.0309      1.00000
    455       0.0560      1.00000
    456       0.0707      1.00000
    457       0.0758      1.00000
    458       0.0815      1.00000
    459       0.1002      1.00000
    460       0.1038      1.00000
    461       0.1192      1.00000
    462       0.1377      1.00000
    463       0.1432      1.00000
    464       0.1854      1.00000
    465       0.2083      1.00000
    466       0.2324      1.00000
    467       0.2358      1.00000
    468       0.2533      1.00000
    469       0.2791      1.00000
    470       0.2856      1.00000
    471       0.3041      1.00000
    472       0.3191      1.00000
    473       0.3223      1.00000
    474       0.3297      1.00000
    475       0.3404      1.00000
    476       0.3463      1.00000
    477       0.3682      1.00000
    478       0.3794      1.00000
    479       0.3973      1.00000
    480       0.4532      1.00000
    481       0.4544      1.00000
    482       0.4945      1.00000
    483       0.5161      1.00000
    484       0.5577      1.00000
    485       0.5650      1.00000
    486       0.5907      1.00000
    487       0.5964      1.00000
    488       0.6395      1.00000
    489       0.6431      1.00000
    490       0.6808      1.00000
    491       0.7203      1.00000
    492       0.7444      1.00000
    493       0.7655      1.00000
    494       0.8200      1.00000
    495       0.8225      1.00000
    496       0.8497      1.00000
    497       0.8574      1.00000
    498       0.8710      1.00000
    499       0.8827      1.00000
    500       0.9017      1.00000
    501       0.9120      1.00000
    502       0.9200      1.00000
    503       0.9300      1.00000
    504       0.9481      1.00000
    505       0.9704      1.00000
    506       0.9982      1.00000
    507       1.0077      1.00000
    508       1.0182      1.00000
    509       1.0412      1.00000
    510       1.0910      1.00000
    511       1.1043      1.00000
    512       1.1309      1.00000
    513       1.1512      1.00000
    514       1.1629      1.00000
    515       1.1723      1.00000
    516       1.1867      1.00000
    517       1.1945      1.00000
    518       1.2083      1.00000
    519       1.2211      1.00000
    520       1.2367      1.00000
    521       1.2858      1.00000
    522       1.3004      1.00000
    523       1.3193      1.00000
    524       1.3259      1.00000
    525       1.3485      1.00000
    526       1.3635      1.00000
    527       1.3853      1.00000
    528       1.3956      1.00000
    529       1.4033      1.00000
    530       1.4272      1.00000
    531       1.4388      1.00000
    532       1.4561      1.00000
    533       1.4697      1.00000
    534       1.4779      1.00000
    535       1.4968      1.00000
    536       1.5026      1.00000
    537       1.5277      1.00000
    538       1.5466      1.00000
    539       1.5604      1.00000
    540       1.5649      1.00000
    541       1.5718      1.00000
    542       1.5819      1.00000
    543       1.5901      1.00000
    544       1.6136      1.00000
    545       1.6238      1.00000
    546       1.6302      1.00000
    547       1.6476      1.00000
    548       1.6556      1.00000
    549       1.6737      1.00000
    550       1.6875      1.00000
    551       1.7009      1.00000
    552       1.7147      1.00000
    553       1.7166      1.00000
    554       1.7244      1.00000
    555       1.7447      1.00000
    556       1.7558      1.00000
    557       1.7617      1.00000
    558       1.7744      1.00000
    559       1.7986      1.00000
    560       1.8052      1.00000
    561       1.8223      1.00000
    562       1.8328      1.00000
    563       1.8419      1.00000
    564       1.8540      1.00000
    565       1.8745      1.00000
    566       1.8966      1.00000
    567       1.9068      1.00000
    568       1.9484      1.00000
    569       1.9568      1.00000
    570       1.9822      1.00000
    571       1.9947      1.00000
    572       1.9996      1.00000
    573       2.0328      1.00000
    574       2.0410      1.00000
    575       2.0539      1.00000
    576       2.0678      1.00000
    577       2.0915      1.00000
    578       2.2326      1.00000
    579       2.3843      1.00000
    580       7.7590      0.00000
    581       8.5233      0.00000
    582       8.5717      0.00000
    583       8.5802      0.00000
    584       9.2232      0.00000
    585       9.2552      0.00000
    586       9.6647      0.00000
    587       9.8617      0.00000
    588       9.9628      0.00000
    589      10.0000      0.00000
    590      10.0167      0.00000
    591      10.0328      0.00000
    592      10.0642      0.00000
    593      10.1424      0.00000
    594      10.1707      0.00000
    595      10.2397      0.00000
    596      10.3226      0.00000
    597      10.3483      0.00000
    598      10.4114      0.00000
    599      10.4389      0.00000
    600      10.4922      0.00000
    601      10.5433      0.00000
    602      10.5842      0.00000
    603      10.6088      0.00000
    604      10.6941      0.00000
    605      10.7053      0.00000
    606      10.7340      0.00000
    607      10.7498      0.00000
    608      10.7643      0.00000
    609      10.7817      0.00000
    610      10.8011      0.00000
    611      10.8103      0.00000
    612      10.8236      0.00000
    613      10.8345      0.00000
    614      10.8715      0.00000
    615      10.8899      0.00000
    616      10.9081      0.00000
    617      10.9425      0.00000
    618      10.9654      0.00000
    619      10.9830      0.00000
    620      10.9997      0.00000
    621      11.0260      0.00000
    622      11.0571      0.00000
    623      11.0869      0.00000
    624      11.1099      0.00000
    625      11.1418      0.00000
    626      11.1644      0.00000
    627      11.2368      0.00000
    628      11.2815      0.00000
    629      11.3189      0.00000
    630      11.3529      0.00000
    631      11.3655      0.00000
    632      11.4007      0.00000
    633      11.4687      0.00000
    634      11.4821      0.00000
    635      11.5187      0.00000
    636      11.5409      0.00000
    637      11.6017      0.00000
    638      11.6443      0.00000
    639      11.6535      0.00000
    640      11.6851      0.00000
    641      11.6899      0.00000
    642      11.7146      0.00000
    643      11.7367      0.00000
    644      11.7576      0.00000
    645      11.7692      0.00000
    646      11.7791      0.00000
    647      11.7938      0.00000
    648      11.8233      0.00000
    649      11.8368      0.00000
    650      11.8564      0.00000
    651      11.8744      0.00000
    652      11.8878      0.00000
    653      11.9144      0.00000
    654      11.9564      0.00000
    655      11.9689      0.00000
    656      12.0320      0.00000
    657      12.0459      0.00000
    658      12.0582      0.00000
    659      12.0683      0.00000
    660      12.0922      0.00000
    661      12.0975      0.00000
    662      12.1202      0.00000
    663      12.1433      0.00000
    664      12.2440      0.00000
    665      12.2712      0.00000
    666      12.2845      0.00000
    667      12.3333      0.00000
    668      12.3848      0.00000
    669      12.4589      0.00000
    670      12.4762      0.00000
    671      12.4858      0.00000
    672      12.5047      0.00000
    673      12.5412      0.00000
    674      12.5675      0.00000
    675      12.5758      0.00000
    676      12.5894      0.00000
    677      12.6470      0.00000
    678      12.6680      0.00000
    679      12.9182      0.00000
    680      12.9559      0.00000
    681      12.9704      0.00000
    682      12.9974      0.00000
    683      13.0065      0.00000
    684      13.0185      0.00000
    685      13.0381      0.00000
    686      13.0785      0.00000
    687      13.0871      0.00000
    688      13.1013      0.00000
    689      13.1381      0.00000
    690      13.1678      0.00000
    691      13.2181      0.00000
    692      13.2320      0.00000
    693      13.2905      0.00000
    694      13.3074      0.00000
    695      13.3440      0.00000
    696      13.4324      0.00000

 k-point     4 :       0.3333    0.0000    0.3333
  band No.  band energies     occupation 
      1     -55.6178      1.00000
      2     -55.6128      1.00000
      3     -55.5703      1.00000
      4     -55.5508      1.00000
      5     -55.5365      1.00000
      6     -55.5343      1.00000
      7     -55.5214      1.00000
      8     -55.5210      1.00000
      9     -55.5209      1.00000
     10     -55.5197      1.00000
     11     -55.5128      1.00000
     12     -55.5010      1.00000
     13     -55.4929      1.00000
     14     -55.4902      1.00000
     15     -55.4832      1.00000
     16     -55.4793      1.00000
     17     -55.4648      1.00000
     18     -55.4586      1.00000
     19     -55.4561      1.00000
     20     -55.4516      1.00000
     21     -55.4389      1.00000
     22     -55.4378      1.00000
     23     -55.4368      1.00000
     24     -55.4192      1.00000
     25     -55.4191      1.00000
     26     -55.4158      1.00000
     27     -55.4095      1.00000
     28     -55.4013      1.00000
     29     -55.4007      1.00000
     30     -55.3934      1.00000
     31     -55.3879      1.00000
     32     -55.3787      1.00000
     33     -55.3778      1.00000
     34     -55.3696      1.00000
     35     -55.3682      1.00000
     36     -55.3667      1.00000
     37     -55.3635      1.00000
     38     -55.3553      1.00000
     39     -55.3547      1.00000
     40     -55.3502      1.00000
     41     -55.3465      1.00000
     42     -55.3462      1.00000
     43     -55.3172      1.00000
     44     -55.3169      1.00000
     45     -55.3141      1.00000
     46     -55.3140      1.00000
     47     -55.3038      1.00000
     48     -55.3019      1.00000
     49     -55.3016      1.00000
     50     -55.2973      1.00000
     51     -55.2969      1.00000
     52     -55.2940      1.00000
     53     -55.2877      1.00000
     54     -55.2844      1.00000
     55     -55.2754      1.00000
     56     -55.2745      1.00000
     57     -55.2730      1.00000
     58     -55.2703      1.00000
     59     -55.2702      1.00000
     60     -55.2684      1.00000
     61     -55.2553      1.00000
     62     -55.2414      1.00000
     63     -55.2397      1.00000
     64     -55.2364      1.00000
     65     -55.2265      1.00000
     66     -55.2194      1.00000
     67     -55.2185      1.00000
     68     -55.1881      1.00000
     69     -55.1797      1.00000
     70     -51.8479      1.00000
     71     -50.4066      1.00000
     72     -50.1144      1.00000
     73     -18.9807      1.00000
     74     -18.7956      1.00000
     75     -18.7465      1.00000
     76     -18.6135      1.00000
     77     -18.5073      1.00000
     78     -18.4521      1.00000
     79     -18.4243      1.00000
     80     -18.4126      1.00000
     81     -18.3853      1.00000
     82     -18.3677      1.00000
     83     -18.3614      1.00000
     84     -18.3405      1.00000
     85     -18.3224      1.00000
     86     -18.3087      1.00000
     87     -18.2766      1.00000
     88     -18.2526      1.00000
     89     -18.2359      1.00000
     90     -18.2126      1.00000
     91     -18.2069      1.00000
     92     -18.2002      1.00000
     93     -18.1955      1.00000
     94     -18.1813      1.00000
     95     -18.1741      1.00000
     96     -18.1422      1.00000
     97     -18.1296      1.00000
     98     -18.1236      1.00000
     99     -18.0733      1.00000
    100     -16.3143      1.00000
    101     -16.2072      1.00000
    102     -16.1680      1.00000
    103     -16.1533      1.00000
    104     -16.1388      1.00000
    105     -16.1326      1.00000
    106     -16.1227      1.00000
    107     -16.1112      1.00000
    108     -16.1017      1.00000
    109     -16.0863      1.00000
    110     -16.0776      1.00000
    111     -16.0694      1.00000
    112     -16.0626      1.00000
    113     -16.0513      1.00000
    114     -16.0457      1.00000
    115     -16.0407      1.00000
    116     -16.0191      1.00000
    117     -16.0130      1.00000
    118     -16.0075      1.00000
    119     -15.9990      1.00000
    120     -15.9894      1.00000
    121     -15.9786      1.00000
    122     -15.9647      1.00000
    123     -15.9418      1.00000
    124     -15.9263      1.00000
    125     -15.9208      1.00000
    126     -15.8885      1.00000
    127     -15.8493      1.00000
    128     -15.8437      1.00000
    129     -15.8285      1.00000
    130     -15.8177      1.00000
    131     -15.8133      1.00000
    132     -15.8047      1.00000
    133     -15.7942      1.00000
    134     -15.7875      1.00000
    135     -15.7844      1.00000
    136     -15.7745      1.00000
    137     -15.7633      1.00000
    138     -15.7527      1.00000
    139     -15.7483      1.00000
    140     -15.7451      1.00000
    141     -15.7401      1.00000
    142     -15.7368      1.00000
    143     -15.7312      1.00000
    144     -15.7257      1.00000
    145     -15.7221      1.00000
    146     -15.7148      1.00000
    147     -15.7015      1.00000
    148     -15.6951      1.00000
    149     -15.6869      1.00000
    150     -15.6808      1.00000
    151     -15.6720      1.00000
    152     -15.6584      1.00000
    153     -15.6526      1.00000
    154     -15.6465      1.00000
    155     -15.6358      1.00000
    156     -15.6336      1.00000
    157     -15.6302      1.00000
    158     -15.6187      1.00000
    159     -15.6078      1.00000
    160     -15.6060      1.00000
    161     -15.6016      1.00000
    162     -15.5970      1.00000
    163     -15.5894      1.00000
    164     -15.5821      1.00000
    165     -15.5780      1.00000
    166     -15.5725      1.00000
    167     -15.5610      1.00000
    168     -15.5218      1.00000
    169     -15.5029      1.00000
    170     -15.4776      1.00000
    171     -15.4409      1.00000
    172      -7.0179      1.00000
    173      -6.8958      1.00000
    174      -6.8650      1.00000
    175      -6.8549      1.00000
    176      -6.8398      1.00000
    177      -6.8285      1.00000
    178      -6.8164      1.00000
    179      -6.8021      1.00000
    180      -6.7732      1.00000
    181      -6.7365      1.00000
    182      -6.7172      1.00000
    183      -6.7052      1.00000
    184      -6.6284      1.00000
    185      -6.5541      1.00000
    186      -6.5329      1.00000
    187      -6.5243      1.00000
    188      -6.5204      1.00000
    189      -6.4757      1.00000
    190      -6.4233      1.00000
    191      -6.4146      1.00000
    192      -6.3581      1.00000
    193      -6.3481      1.00000
    194      -6.2576      1.00000
    195      -6.1272      1.00000
    196      -6.0295      1.00000
    197      -5.9896      1.00000
    198      -5.9833      1.00000
    199      -5.9771      1.00000
    200      -5.9510      1.00000
    201      -5.9392      1.00000
    202      -5.9254      1.00000
    203      -5.9199      1.00000
    204      -5.8798      1.00000
    205      -5.8569      1.00000
    206      -5.8361      1.00000
    207      -5.8337      1.00000
    208      -5.8134      1.00000
    209      -5.7990      1.00000
    210      -5.7833      1.00000
    211      -5.7757      1.00000
    212      -5.7723      1.00000
    213      -5.7204      1.00000
    214      -5.6685      1.00000
    215      -5.6242      1.00000
    216      -5.5946      1.00000
    217      -5.5697      1.00000
    218      -5.5538      1.00000
    219      -5.4900      1.00000
    220      -5.4761      1.00000
    221      -5.4319      1.00000
    222      -5.3820      1.00000
    223      -5.3142      1.00000
    224      -5.2833      1.00000
    225      -5.2716      1.00000
    226      -5.2508      1.00000
    227      -5.2410      1.00000
    228      -5.2266      1.00000
    229      -5.2203      1.00000
    230      -5.2104      1.00000
    231      -5.2098      1.00000
    232      -5.1985      1.00000
    233      -5.1881      1.00000
    234      -5.1781      1.00000
    235      -5.1727      1.00000
    236      -5.1629      1.00000
    237      -5.1510      1.00000
    238      -5.1431      1.00000
    239      -5.1358      1.00000
    240      -5.1327      1.00000
    241      -5.1226      1.00000
    242      -5.1184      1.00000
    243      -5.1077      1.00000
    244      -5.1013      1.00000
    245      -5.0932      1.00000
    246      -5.0901      1.00000
    247      -5.0840      1.00000
    248      -5.0799      1.00000
    249      -5.0723      1.00000
    250      -5.0666      1.00000
    251      -5.0650      1.00000
    252      -5.0576      1.00000
    253      -5.0502      1.00000
    254      -5.0442      1.00000
    255      -5.0405      1.00000
    256      -5.0361      1.00000
    257      -5.0287      1.00000
    258      -5.0239      1.00000
    259      -5.0155      1.00000
    260      -5.0114      1.00000
    261      -5.0079      1.00000
    262      -5.0005      1.00000
    263      -4.9977      1.00000
    264      -4.9906      1.00000
    265      -4.9882      1.00000
    266      -4.9840      1.00000
    267      -4.9776      1.00000
    268      -4.9712      1.00000
    269      -4.9666      1.00000
    270      -4.9648      1.00000
    271      -4.9592      1.00000
    272      -4.9493      1.00000
    273      -4.9420      1.00000
    274      -4.9374      1.00000
    275      -4.9360      1.00000
    276      -4.9313      1.00000
    277      -4.9215      1.00000
    278      -4.9181      1.00000
    279      -4.9134      1.00000
    280      -4.9050      1.00000
    281      -4.9011      1.00000
    282      -4.8948      1.00000
    283      -4.8880      1.00000
    284      -4.8783      1.00000
    285      -4.8674      1.00000
    286      -4.8622      1.00000
    287      -4.8501      1.00000
    288      -4.8397      1.00000
    289      -4.8297      1.00000
    290      -4.8161      1.00000
    291      -4.8038      1.00000
    292      -4.7652      1.00000
    293      -4.7341      1.00000
    294      -4.7261      1.00000
    295      -4.6781      1.00000
    296      -4.6513      1.00000
    297      -4.6096      1.00000
    298      -4.5688      1.00000
    299      -4.5624      1.00000
    300      -4.5476      1.00000
    301      -4.5050      1.00000
    302      -4.4821      1.00000
    303      -4.3928      1.00000
    304      -4.3417      1.00000
    305      -4.3070      1.00000
    306      -4.2967      1.00000
    307      -4.2337      1.00000
    308      -4.2163      1.00000
    309      -4.1949      1.00000
    310      -4.0805      1.00000
    311      -4.0770      1.00000
    312      -4.0156      1.00000
    313      -3.8468      1.00000
    314      -3.8187      1.00000
    315      -3.7988      1.00000
    316      -3.7161      1.00000
    317      -3.6919      1.00000
    318      -3.6321      1.00000
    319      -3.5862      1.00000
    320      -3.5346      1.00000
    321      -3.4814      1.00000
    322      -3.4670      1.00000
    323      -3.2948      1.00000
    324      -3.2256      1.00000
    325      -3.2139      1.00000
    326      -3.1477      1.00000
    327      -3.1305      1.00000
    328      -3.1108      1.00000
    329      -3.1034      1.00000
    330      -3.0857      1.00000
    331      -3.0646      1.00000
    332      -3.0545      1.00000
    333      -3.0301      1.00000
    334      -3.0132      1.00000
    335      -2.9738      1.00000
    336      -2.9626      1.00000
    337      -2.9588      1.00000
    338      -2.9227      1.00000
    339      -2.9106      1.00000
    340      -2.9029      1.00000
    341      -2.8822      1.00000
    342      -2.8685      1.00000
    343      -2.8521      1.00000
    344      -2.8379      1.00000
    345      -2.8227      1.00000
    346      -2.8103      1.00000
    347      -2.8029      1.00000
    348      -2.7916      1.00000
    349      -2.7801      1.00000
    350      -2.7734      1.00000
    351      -2.7667      1.00000
    352      -2.7607      1.00000
    353      -2.7362      1.00000
    354      -2.7265      1.00000
    355      -2.7198      1.00000
    356      -2.6978      1.00000
    357      -2.6917      1.00000
    358      -2.6841      1.00000
    359      -2.6748      1.00000
    360      -2.6584      1.00000
    361      -2.6309      1.00000
    362      -2.6216      1.00000
    363      -2.6129      1.00000
    364      -2.6064      1.00000
    365      -2.5702      1.00000
    366      -2.5370      1.00000
    367      -2.4458      1.00000
    368      -2.4118      1.00000
    369      -2.3924      1.00000
    370      -2.3498      1.00000
    371      -2.2737      1.00000
    372      -2.2261      1.00000
    373      -2.2204      1.00000
    374      -2.1769      1.00000
    375      -2.1502      1.00000
    376      -2.1302      1.00000
    377      -2.1160      1.00000
    378      -2.1079      1.00000
    379      -2.0629      1.00000
    380      -2.0400      1.00000
    381      -1.9728      1.00000
    382      -1.9084      1.00000
    383      -1.6063      1.00000
    384      -1.4963      1.00000
    385      -1.4482      1.00000
    386      -1.3869      1.00000
    387      -1.3227      1.00000
    388      -1.3060      1.00000
    389      -1.2659      1.00000
    390      -1.2459      1.00000
    391      -1.2306      1.00000
    392      -1.2058      1.00000
    393      -1.1858      1.00000
    394      -1.1382      1.00000
    395      -1.0901      1.00000
    396      -1.0653      1.00000
    397      -1.0179      1.00000
    398      -1.0128      1.00000
    399      -0.9986      1.00000
    400      -0.9759      1.00000
    401      -0.9454      1.00000
    402      -0.9402      1.00000
    403      -0.9146      1.00000
    404      -0.8978      1.00000
    405      -0.8777      1.00000
    406      -0.8651      1.00000
    407      -0.8441      1.00000
    408      -0.8272      1.00000
    409      -0.8044      1.00000
    410      -0.7920      1.00000
    411      -0.7824      1.00000
    412      -0.7586      1.00000
    413      -0.7339      1.00000
    414      -0.6714      1.00000
    415      -0.6606      1.00000
    416      -0.6263      1.00000
    417      -0.6132      1.00000
    418      -0.6047      1.00000
    419      -0.5702      1.00000
    420      -0.5448      1.00000
    421      -0.5385      1.00000
    422      -0.5281      1.00000
    423      -0.5235      1.00000
    424      -0.5087      1.00000
    425      -0.4833      1.00000
    426      -0.4742      1.00000
    427      -0.4522      1.00000
    428      -0.4416      1.00000
    429      -0.4051      1.00000
    430      -0.3715      1.00000
    431      -0.3632      1.00000
    432      -0.3053      1.00000
    433      -0.2961      1.00000
    434      -0.2512      1.00000
    435      -0.2410      1.00000
    436      -0.2160      1.00000
    437      -0.1953      1.00000
    438      -0.1835      1.00000
    439      -0.1646      1.00000
    440      -0.1510      1.00000
    441      -0.1272      1.00000
    442      -0.1243      1.00000
    443      -0.1176      1.00000
    444      -0.1098      1.00000
    445      -0.0986      1.00000
    446      -0.0874      1.00000
    447      -0.0765      1.00000
    448      -0.0551      1.00000
    449      -0.0402      1.00000
    450      -0.0241      1.00000
    451      -0.0135      1.00000
    452       0.0020      1.00000
    453       0.0115      1.00000
    454       0.0316      1.00000
    455       0.0539      1.00000
    456       0.0704      1.00000
    457       0.0856      1.00000
    458       0.1123      1.00000
    459       0.1250      1.00000
    460       0.1484      1.00000
    461       0.1639      1.00000
    462       0.1756      1.00000
    463       0.1875      1.00000
    464       0.1932      1.00000
    465       0.2099      1.00000
    466       0.2178      1.00000
    467       0.2314      1.00000
    468       0.2476      1.00000
    469       0.2503      1.00000
    470       0.2659      1.00000
    471       0.2746      1.00000
    472       0.2850      1.00000
    473       0.2986      1.00000
    474       0.3148      1.00000
    475       0.3309      1.00000
    476       0.3363      1.00000
    477       0.3508      1.00000
    478       0.3653      1.00000
    479       0.3841      1.00000
    480       0.3927      1.00000
    481       0.4241      1.00000
    482       0.4571      1.00000
    483       0.4873      1.00000
    484       0.5403      1.00000
    485       0.5697      1.00000
    486       0.5871      1.00000
    487       0.6008      1.00000
    488       0.6240      1.00000
    489       0.6490      1.00000
    490       0.6828      1.00000
    491       0.6940      1.00000
    492       0.7103      1.00000
    493       0.7215      1.00000
    494       0.7476      1.00000
    495       0.7737      1.00000
    496       0.8172      1.00000
    497       0.8322      1.00000
    498       0.8361      1.00000
    499       0.8456      1.00000
    500       0.8548      1.00000
    501       0.8670      1.00000
    502       0.8826      1.00000
    503       0.8944      1.00000
    504       0.9316      1.00000
    505       0.9547      1.00000
    506       0.9937      1.00000
    507       1.0005      1.00000
    508       1.0196      1.00000
    509       1.0730      1.00000
    510       1.0890      1.00000
    511       1.1033      1.00000
    512       1.1110      1.00000
    513       1.1268      1.00000
    514       1.1329      1.00000
    515       1.1614      1.00000
    516       1.1801      1.00000
    517       1.1839      1.00000
    518       1.1998      1.00000
    519       1.2179      1.00000
    520       1.2267      1.00000
    521       1.2661      1.00000
    522       1.2785      1.00000
    523       1.2870      1.00000
    524       1.2972      1.00000
    525       1.3261      1.00000
    526       1.3312      1.00000
    527       1.3629      1.00000
    528       1.3761      1.00000
    529       1.3850      1.00000
    530       1.4042      1.00000
    531       1.4139      1.00000
    532       1.4184      1.00000
    533       1.4487      1.00000
    534       1.4669      1.00000
    535       1.4811      1.00000
    536       1.4932      1.00000
    537       1.5074      1.00000
    538       1.5195      1.00000
    539       1.5302      1.00000
    540       1.5347      1.00000
    541       1.5788      1.00000
    542       1.6084      1.00000
    543       1.6201      1.00000
    544       1.6343      1.00000
    545       1.6443      1.00000
    546       1.6632      1.00000
    547       1.7030      1.00000
    548       1.7095      1.00000
    549       1.7243      1.00000
    550       1.7314      1.00000
    551       1.7355      1.00000
    552       1.7444      1.00000
    553       1.7619      1.00000
    554       1.7694      1.00000
    555       1.7745      1.00000
    556       1.7893      1.00000
    557       1.8022      1.00000
    558       1.8098      1.00000
    559       1.8208      1.00000
    560       1.8287      1.00000
    561       1.8497      1.00000
    562       1.8583      1.00000
    563       1.8677      1.00000
    564       1.8789      1.00000
    565       1.8931      1.00000
    566       1.9041      1.00000
    567       1.9198      1.00000
    568       1.9319      1.00000
    569       1.9394      1.00000
    570       1.9455      1.00000
    571       1.9520      1.00000
    572       1.9630      1.00000
    573       1.9993      1.00000
    574       2.0107      1.00000
    575       2.0197      1.00000
    576       2.0362      1.00000
    577       2.0631      1.00000
    578       2.2201      1.00000
    579       2.3886      1.00000
    580       8.0850      0.00000
    581       8.7529      0.00000
    582       8.8150      0.00000
    583       8.8266      0.00000
    584       8.9050      0.00000
    585       9.3684      0.00000
    586       9.4298      0.00000
    587       9.4345      0.00000
    588       9.4611      0.00000
    589       9.4981      0.00000
    590       9.9188      0.00000
    591       9.9454      0.00000
    592      10.0511      0.00000
    593      10.1169      0.00000
    594      10.1260      0.00000
    595      10.2037      0.00000
    596      10.3342      0.00000
    597      10.3621      0.00000
    598      10.3783      0.00000
    599      10.4067      0.00000
    600      10.4195      0.00000
    601      10.4596      0.00000
    602      10.5564      0.00000
    603      10.5846      0.00000
    604      10.7234      0.00000
    605      10.7735      0.00000
    606      10.7996      0.00000
    607      10.8219      0.00000
    608      10.8889      0.00000
    609      10.9038      0.00000
    610      10.9276      0.00000
    611      10.9413      0.00000
    612      10.9490      0.00000
    613      10.9786      0.00000
    614      11.0208      0.00000
    615      11.0435      0.00000
    616      11.0679      0.00000
    617      11.0782      0.00000
    618      11.0859      0.00000
    619      11.1015      0.00000
    620      11.1275      0.00000
    621      11.1334      0.00000
    622      11.1533      0.00000
    623      11.1998      0.00000
    624      11.2700      0.00000
    625      11.2865      0.00000
    626      11.3011      0.00000
    627      11.3149      0.00000
    628      11.3300      0.00000
    629      11.3513      0.00000
    630      11.3676      0.00000
    631      11.3938      0.00000
    632      11.4169      0.00000
    633      11.4242      0.00000
    634      11.4653      0.00000
    635      11.4830      0.00000
    636      11.5137      0.00000
    637      11.5307      0.00000
    638      11.5621      0.00000
    639      11.6069      0.00000
    640      11.6261      0.00000
    641      11.6413      0.00000
    642      11.6860      0.00000
    643      11.7212      0.00000
    644      11.7350      0.00000
    645      11.7438      0.00000
    646      11.7584      0.00000
    647      11.7798      0.00000
    648      11.8035      0.00000
    649      11.8196      0.00000
    650      11.8467      0.00000
    651      11.8714      0.00000
    652      11.8963      0.00000
    653      11.9043      0.00000
    654      11.9215      0.00000
    655      11.9384      0.00000
    656      11.9586      0.00000
    657      11.9661      0.00000
    658      11.9927      0.00000
    659      12.0009      0.00000
    660      12.0367      0.00000
    661      12.0809      0.00000
    662      12.1129      0.00000
    663      12.1944      0.00000
    664      12.2134      0.00000
    665      12.2277      0.00000
    666      12.2572      0.00000
    667      12.3361      0.00000
    668      12.4165      0.00000
    669      12.4382      0.00000
    670      12.4736      0.00000
    671      12.4894      0.00000
    672      12.5235      0.00000
    673      12.5551      0.00000
    674      12.5949      0.00000
    675      12.6213      0.00000
    676      12.6355      0.00000
    677      12.6439      0.00000
    678      12.7397      0.00000
    679      12.7670      0.00000
    680      12.7925      0.00000
    681      12.8199      0.00000
    682      12.8263      0.00000
    683      12.8459      0.00000
    684      12.8721      0.00000
    685      12.9262      0.00000
    686      13.1105      0.00000
    687      13.1414      0.00000
    688      13.1878      0.00000
    689      13.2154      0.00000
    690      13.2307      0.00000
    691      13.2488      0.00000
    692      13.2999      0.00000
    693      13.3172      0.00000
    694      13.3461      0.00000
    695      13.3835      0.00000
    696      13.4005      0.00000

 k-point     5 :      -0.3333    0.0000    0.3333
  band No.  band energies     occupation 
      1     -55.6178      1.00000
      2     -55.6128      1.00000
      3     -55.5703      1.00000
      4     -55.5508      1.00000
      5     -55.5365      1.00000
      6     -55.5343      1.00000
      7     -55.5214      1.00000
      8     -55.5210      1.00000
      9     -55.5209      1.00000
     10     -55.5197      1.00000
     11     -55.5128      1.00000
     12     -55.5010      1.00000
     13     -55.4929      1.00000
     14     -55.4902      1.00000
     15     -55.4832      1.00000
     16     -55.4793      1.00000
     17     -55.4648      1.00000
     18     -55.4586      1.00000
     19     -55.4561      1.00000
     20     -55.4516      1.00000
     21     -55.4389      1.00000
     22     -55.4378      1.00000
     23     -55.4368      1.00000
     24     -55.4192      1.00000
     25     -55.4191      1.00000
     26     -55.4158      1.00000
     27     -55.4095      1.00000
     28     -55.4013      1.00000
     29     -55.4007      1.00000
     30     -55.3934      1.00000
     31     -55.3879      1.00000
     32     -55.3787      1.00000
     33     -55.3778      1.00000
     34     -55.3696      1.00000
     35     -55.3682      1.00000
     36     -55.3667      1.00000
     37     -55.3635      1.00000
     38     -55.3553      1.00000
     39     -55.3547      1.00000
     40     -55.3502      1.00000
     41     -55.3465      1.00000
     42     -55.3462      1.00000
     43     -55.3172      1.00000
     44     -55.3169      1.00000
     45     -55.3141      1.00000
     46     -55.3140      1.00000
     47     -55.3038      1.00000
     48     -55.3019      1.00000
     49     -55.3016      1.00000
     50     -55.2973      1.00000
     51     -55.2969      1.00000
     52     -55.2940      1.00000
     53     -55.2877      1.00000
     54     -55.2844      1.00000
     55     -55.2754      1.00000
     56     -55.2745      1.00000
     57     -55.2730      1.00000
     58     -55.2703      1.00000
     59     -55.2702      1.00000
     60     -55.2684      1.00000
     61     -55.2553      1.00000
     62     -55.2414      1.00000
     63     -55.2397      1.00000
     64     -55.2364      1.00000
     65     -55.2265      1.00000
     66     -55.2194      1.00000
     67     -55.2185      1.00000
     68     -55.1881      1.00000
     69     -55.1797      1.00000
     70     -51.8479      1.00000
     71     -50.4066      1.00000
     72     -50.1144      1.00000
     73     -18.9810      1.00000
     74     -18.7952      1.00000
     75     -18.7465      1.00000
     76     -18.6105      1.00000
     77     -18.5093      1.00000
     78     -18.4536      1.00000
     79     -18.4276      1.00000
     80     -18.4132      1.00000
     81     -18.3855      1.00000
     82     -18.3641      1.00000
     83     -18.3617      1.00000
     84     -18.3400      1.00000
     85     -18.3226      1.00000
     86     -18.3093      1.00000
     87     -18.2792      1.00000
     88     -18.2478      1.00000
     89     -18.2360      1.00000
     90     -18.2129      1.00000
     91     -18.2061      1.00000
     92     -18.2018      1.00000
     93     -18.1954      1.00000
     94     -18.1809      1.00000
     95     -18.1707      1.00000
     96     -18.1457      1.00000
     97     -18.1292      1.00000
     98     -18.1247      1.00000
     99     -18.0726      1.00000
    100     -16.3143      1.00000
    101     -16.2022      1.00000
    102     -16.1629      1.00000
    103     -16.1552      1.00000
    104     -16.1486      1.00000
    105     -16.1394      1.00000
    106     -16.1253      1.00000
    107     -16.1075      1.00000
    108     -16.0895      1.00000
    109     -16.0857      1.00000
    110     -16.0839      1.00000
    111     -16.0681      1.00000
    112     -16.0661      1.00000
    113     -16.0506      1.00000
    114     -16.0462      1.00000
    115     -16.0367      1.00000
    116     -16.0235      1.00000
    117     -16.0189      1.00000
    118     -16.0110      1.00000
    119     -16.0022      1.00000
    120     -15.9848      1.00000
    121     -15.9717      1.00000
    122     -15.9614      1.00000
    123     -15.9372      1.00000
    124     -15.9260      1.00000
    125     -15.9162      1.00000
    126     -15.8914      1.00000
    127     -15.8553      1.00000
    128     -15.8407      1.00000
    129     -15.8254      1.00000
    130     -15.8224      1.00000
    131     -15.8150      1.00000
    132     -15.8027      1.00000
    133     -15.7994      1.00000
    134     -15.7831      1.00000
    135     -15.7806      1.00000
    136     -15.7752      1.00000
    137     -15.7642      1.00000
    138     -15.7552      1.00000
    139     -15.7501      1.00000
    140     -15.7461      1.00000
    141     -15.7403      1.00000
    142     -15.7360      1.00000
    143     -15.7318      1.00000
    144     -15.7284      1.00000
    145     -15.7217      1.00000
    146     -15.7126      1.00000
    147     -15.7044      1.00000
    148     -15.6929      1.00000
    149     -15.6858      1.00000
    150     -15.6774      1.00000
    151     -15.6681      1.00000
    152     -15.6642      1.00000
    153     -15.6551      1.00000
    154     -15.6425      1.00000
    155     -15.6398      1.00000
    156     -15.6334      1.00000
    157     -15.6256      1.00000
    158     -15.6198      1.00000
    159     -15.6093      1.00000
    160     -15.6041      1.00000
    161     -15.6014      1.00000
    162     -15.5943      1.00000
    163     -15.5896      1.00000
    164     -15.5854      1.00000
    165     -15.5790      1.00000
    166     -15.5741      1.00000
    167     -15.5587      1.00000
    168     -15.5212      1.00000
    169     -15.5033      1.00000
    170     -15.4778      1.00000
    171     -15.4409      1.00000
    172      -7.0136      1.00000
    173      -6.8983      1.00000
    174      -6.8614      1.00000
    175      -6.8543      1.00000
    176      -6.8416      1.00000
    177      -6.8258      1.00000
    178      -6.8221      1.00000
    179      -6.7974      1.00000
    180      -6.7861      1.00000
    181      -6.7389      1.00000
    182      -6.7276      1.00000
    183      -6.6901      1.00000
    184      -6.6289      1.00000
    185      -6.5530      1.00000
    186      -6.5354      1.00000
    187      -6.5241      1.00000
    188      -6.5160      1.00000
    189      -6.4681      1.00000
    190      -6.4341      1.00000
    191      -6.4085      1.00000
    192      -6.3590      1.00000
    193      -6.3343      1.00000
    194      -6.2801      1.00000
    195      -6.1124      1.00000
    196      -6.0322      1.00000
    197      -5.9933      1.00000
    198      -5.9842      1.00000
    199      -5.9739      1.00000
    200      -5.9493      1.00000
    201      -5.9448      1.00000
    202      -5.9194      1.00000
    203      -5.9125      1.00000
    204      -5.8871      1.00000
    205      -5.8577      1.00000
    206      -5.8399      1.00000
    207      -5.8267      1.00000
    208      -5.8144      1.00000
    209      -5.7996      1.00000
    210      -5.7863      1.00000
    211      -5.7786      1.00000
    212      -5.7731      1.00000
    213      -5.7258      1.00000
    214      -5.6642      1.00000
    215      -5.6211      1.00000
    216      -5.5991      1.00000
    217      -5.5745      1.00000
    218      -5.5471      1.00000
    219      -5.4901      1.00000
    220      -5.4783      1.00000
    221      -5.4298      1.00000
    222      -5.3645      1.00000
    223      -5.3378      1.00000
    224      -5.2793      1.00000
    225      -5.2708      1.00000
    226      -5.2496      1.00000
    227      -5.2378      1.00000
    228      -5.2251      1.00000
    229      -5.2126      1.00000
    230      -5.2106      1.00000
    231      -5.2014      1.00000
    232      -5.1955      1.00000
    233      -5.1917      1.00000
    234      -5.1733      1.00000
    235      -5.1687      1.00000
    236      -5.1654      1.00000
    237      -5.1557      1.00000
    238      -5.1464      1.00000
    239      -5.1394      1.00000
    240      -5.1338      1.00000
    241      -5.1289      1.00000
    242      -5.1203      1.00000
    243      -5.1099      1.00000
    244      -5.1006      1.00000
    245      -5.0956      1.00000
    246      -5.0876      1.00000
    247      -5.0820      1.00000
    248      -5.0751      1.00000
    249      -5.0732      1.00000
    250      -5.0689      1.00000
    251      -5.0632      1.00000
    252      -5.0547      1.00000
    253      -5.0501      1.00000
    254      -5.0443      1.00000
    255      -5.0365      1.00000
    256      -5.0316      1.00000
    257      -5.0272      1.00000
    258      -5.0225      1.00000
    259      -5.0200      1.00000
    260      -5.0141      1.00000
    261      -5.0052      1.00000
    262      -5.0017      1.00000
    263      -5.0001      1.00000
    264      -4.9953      1.00000
    265      -4.9891      1.00000
    266      -4.9872      1.00000
    267      -4.9815      1.00000
    268      -4.9764      1.00000
    269      -4.9641      1.00000
    270      -4.9616      1.00000
    271      -4.9550      1.00000
    272      -4.9518      1.00000
    273      -4.9442      1.00000
    274      -4.9394      1.00000
    275      -4.9337      1.00000
    276      -4.9243      1.00000
    277      -4.9220      1.00000
    278      -4.9208      1.00000
    279      -4.9111      1.00000
    280      -4.9059      1.00000
    281      -4.8989      1.00000
    282      -4.8958      1.00000
    283      -4.8900      1.00000
    284      -4.8801      1.00000
    285      -4.8714      1.00000
    286      -4.8603      1.00000
    287      -4.8516      1.00000
    288      -4.8388      1.00000
    289      -4.8299      1.00000
    290      -4.8149      1.00000
    291      -4.8003      1.00000
    292      -4.7741      1.00000
    293      -4.7586      1.00000
    294      -4.7098      1.00000
    295      -4.6985      1.00000
    296      -4.6395      1.00000
    297      -4.6015      1.00000
    298      -4.5738      1.00000
    299      -4.5512      1.00000
    300      -4.5288      1.00000
    301      -4.5148      1.00000
    302      -4.4676      1.00000
    303      -4.4061      1.00000
    304      -4.3394      1.00000
    305      -4.3021      1.00000
    306      -4.2934      1.00000
    307      -4.2351      1.00000
    308      -4.2183      1.00000
    309      -4.1893      1.00000
    310      -4.0966      1.00000
    311      -4.0827      1.00000
    312      -4.0208      1.00000
    313      -3.8405      1.00000
    314      -3.8205      1.00000
    315      -3.8102      1.00000
    316      -3.7135      1.00000
    317      -3.7024      1.00000
    318      -3.6196      1.00000
    319      -3.5865      1.00000
    320      -3.5097      1.00000
    321      -3.4736      1.00000
    322      -3.4567      1.00000
    323      -3.3426      1.00000
    324      -3.2251      1.00000
    325      -3.1896      1.00000
    326      -3.1466      1.00000
    327      -3.1402      1.00000
    328      -3.0996      1.00000
    329      -3.0945      1.00000
    330      -3.0763      1.00000
    331      -3.0674      1.00000
    332      -3.0560      1.00000
    333      -3.0284      1.00000
    334      -3.0179      1.00000
    335      -2.9979      1.00000
    336      -2.9747      1.00000
    337      -2.9647      1.00000
    338      -2.9213      1.00000
    339      -2.9175      1.00000
    340      -2.8940      1.00000
    341      -2.8657      1.00000
    342      -2.8582      1.00000
    343      -2.8490      1.00000
    344      -2.8351      1.00000
    345      -2.8242      1.00000
    346      -2.8100      1.00000
    347      -2.8033      1.00000
    348      -2.7966      1.00000
    349      -2.7822      1.00000
    350      -2.7723      1.00000
    351      -2.7647      1.00000
    352      -2.7494      1.00000
    353      -2.7437      1.00000
    354      -2.7320      1.00000
    355      -2.7123      1.00000
    356      -2.6964      1.00000
    357      -2.6929      1.00000
    358      -2.6813      1.00000
    359      -2.6688      1.00000
    360      -2.6619      1.00000
    361      -2.6479      1.00000
    362      -2.6313      1.00000
    363      -2.6244      1.00000
    364      -2.5987      1.00000
    365      -2.5684      1.00000
    366      -2.5249      1.00000
    367      -2.4810      1.00000
    368      -2.4112      1.00000
    369      -2.3823      1.00000
    370      -2.3107      1.00000
    371      -2.2821      1.00000
    372      -2.2338      1.00000
    373      -2.2215      1.00000
    374      -2.1791      1.00000
    375      -2.1533      1.00000
    376      -2.1230      1.00000
    377      -2.1074      1.00000
    378      -2.0978      1.00000
    379      -2.0752      1.00000
    380      -2.0473      1.00000
    381      -1.9733      1.00000
    382      -1.9057      1.00000
    383      -1.5973      1.00000
    384      -1.4938      1.00000
    385      -1.4494      1.00000
    386      -1.3842      1.00000
    387      -1.3282      1.00000
    388      -1.3214      1.00000
    389      -1.2750      1.00000
    390      -1.2549      1.00000
    391      -1.2370      1.00000
    392      -1.1876      1.00000
    393      -1.1786      1.00000
    394      -1.1220      1.00000
    395      -1.1004      1.00000
    396      -1.0813      1.00000
    397      -1.0319      1.00000
    398      -1.0237      1.00000
    399      -0.9926      1.00000
    400      -0.9819      1.00000
    401      -0.9546      1.00000
    402      -0.9229      1.00000
    403      -0.9058      1.00000
    404      -0.8877      1.00000
    405      -0.8553      1.00000
    406      -0.8462      1.00000
    407      -0.8348      1.00000
    408      -0.8250      1.00000
    409      -0.8014      1.00000
    410      -0.7875      1.00000
    411      -0.7816      1.00000
    412      -0.7506      1.00000
    413      -0.7370      1.00000
    414      -0.6919      1.00000
    415      -0.6735      1.00000
    416      -0.6545      1.00000
    417      -0.6371      1.00000
    418      -0.6204      1.00000
    419      -0.5713      1.00000
    420      -0.5672      1.00000
    421      -0.5475      1.00000
    422      -0.5229      1.00000
    423      -0.5106      1.00000
    424      -0.5008      1.00000
    425      -0.4884      1.00000
    426      -0.4668      1.00000
    427      -0.4565      1.00000
    428      -0.4135      1.00000
    429      -0.4070      1.00000
    430      -0.3634      1.00000
    431      -0.3395      1.00000
    432      -0.3046      1.00000
    433      -0.2761      1.00000
    434      -0.2562      1.00000
    435      -0.2292      1.00000
    436      -0.2200      1.00000
    437      -0.1984      1.00000
    438      -0.1888      1.00000
    439      -0.1764      1.00000
    440      -0.1627      1.00000
    441      -0.1442      1.00000
    442      -0.1261      1.00000
    443      -0.1186      1.00000
    444      -0.1048      1.00000
    445      -0.0953      1.00000
    446      -0.0797      1.00000
    447      -0.0662      1.00000
    448      -0.0380      1.00000
    449      -0.0289      1.00000
    450      -0.0141      1.00000
    451      -0.0058      1.00000
    452       0.0039      1.00000
    453       0.0111      1.00000
    454       0.0366      1.00000
    455       0.0412      1.00000
    456       0.0561      1.00000
    457       0.0682      1.00000
    458       0.1042      1.00000
    459       0.1306      1.00000
    460       0.1519      1.00000
    461       0.1619      1.00000
    462       0.1781      1.00000
    463       0.1908      1.00000
    464       0.1937      1.00000
    465       0.2025      1.00000
    466       0.2178      1.00000
    467       0.2227      1.00000
    468       0.2343      1.00000
    469       0.2409      1.00000
    470       0.2621      1.00000
    471       0.2648      1.00000
    472       0.2766      1.00000
    473       0.2885      1.00000
    474       0.3138      1.00000
    475       0.3355      1.00000
    476       0.3440      1.00000
    477       0.3517      1.00000
    478       0.3779      1.00000
    479       0.4073      1.00000
    480       0.4192      1.00000
    481       0.4482      1.00000
    482       0.4550      1.00000
    483       0.4935      1.00000
    484       0.5546      1.00000
    485       0.5636      1.00000
    486       0.5797      1.00000
    487       0.5971      1.00000
    488       0.6216      1.00000
    489       0.6323      1.00000
    490       0.6507      1.00000
    491       0.6766      1.00000
    492       0.7071      1.00000
    493       0.7176      1.00000
    494       0.7571      1.00000
    495       0.7896      1.00000
    496       0.8079      1.00000
    497       0.8245      1.00000
    498       0.8407      1.00000
    499       0.8472      1.00000
    500       0.8594      1.00000
    501       0.8766      1.00000
    502       0.8917      1.00000
    503       0.9071      1.00000
    504       0.9235      1.00000
    505       0.9522      1.00000
    506       0.9845      1.00000
    507       0.9985      1.00000
    508       1.0209      1.00000
    509       1.0446      1.00000
    510       1.0908      1.00000
    511       1.1046      1.00000
    512       1.1205      1.00000
    513       1.1276      1.00000
    514       1.1450      1.00000
    515       1.1711      1.00000
    516       1.1765      1.00000
    517       1.1935      1.00000
    518       1.2056      1.00000
    519       1.2160      1.00000
    520       1.2255      1.00000
    521       1.2488      1.00000
    522       1.2610      1.00000
    523       1.2844      1.00000
    524       1.2969      1.00000
    525       1.3184      1.00000
    526       1.3439      1.00000
    527       1.3677      1.00000
    528       1.3796      1.00000
    529       1.3904      1.00000
    530       1.4088      1.00000
    531       1.4150      1.00000
    532       1.4258      1.00000
    533       1.4344      1.00000
    534       1.4681      1.00000
    535       1.4864      1.00000
    536       1.4991      1.00000
    537       1.5058      1.00000
    538       1.5138      1.00000
    539       1.5436      1.00000
    540       1.5537      1.00000
    541       1.5699      1.00000
    542       1.5883      1.00000
    543       1.6121      1.00000
    544       1.6431      1.00000
    545       1.6450      1.00000
    546       1.6636      1.00000
    547       1.6850      1.00000
    548       1.6996      1.00000
    549       1.7089      1.00000
    550       1.7351      1.00000
    551       1.7482      1.00000
    552       1.7591      1.00000
    553       1.7679      1.00000
    554       1.7767      1.00000
    555       1.7821      1.00000
    556       1.7863      1.00000
    557       1.8015      1.00000
    558       1.8120      1.00000
    559       1.8219      1.00000
    560       1.8326      1.00000
    561       1.8468      1.00000
    562       1.8525      1.00000
    563       1.8734      1.00000
    564       1.8820      1.00000
    565       1.8972      1.00000
    566       1.9018      1.00000
    567       1.9112      1.00000
    568       1.9209      1.00000
    569       1.9266      1.00000
    570       1.9403      1.00000
    571       1.9486      1.00000
    572       1.9725      1.00000
    573       1.9979      1.00000
    574       2.0160      1.00000
    575       2.0257      1.00000
    576       2.0410      1.00000
    577       2.0642      1.00000
    578       2.2227      1.00000
    579       2.3838      1.00000
    580       8.0847      0.00000
    581       8.7546      0.00000
    582       8.8183      0.00000
    583       8.8289      0.00000
    584       8.9128      0.00000
    585       9.3452      0.00000
    586       9.4120      0.00000
    587       9.4366      0.00000
    588       9.4756      0.00000
    589       9.4938      0.00000
    590       9.9101      0.00000
    591       9.9430      0.00000
    592      10.0629      0.00000
    593      10.1185      0.00000
    594      10.1434      0.00000
    595      10.2191      0.00000
    596      10.3294      0.00000
    597      10.3622      0.00000
    598      10.3713      0.00000
    599      10.3926      0.00000
    600      10.4168      0.00000
    601      10.4599      0.00000
    602      10.5642      0.00000
    603      10.5877      0.00000
    604      10.7492      0.00000
    605      10.7736      0.00000
    606      10.7969      0.00000
    607      10.8103      0.00000
    608      10.8503      0.00000
    609      10.8931      0.00000
    610      10.9279      0.00000
    611      10.9396      0.00000
    612      10.9555      0.00000
    613      10.9845      0.00000
    614      11.0275      0.00000
    615      11.0316      0.00000
    616      11.0605      0.00000
    617      11.0754      0.00000
    618      11.0999      0.00000
    619      11.1055      0.00000
    620      11.1215      0.00000
    621      11.1633      0.00000
    622      11.1737      0.00000
    623      11.1987      0.00000
    624      11.2529      0.00000
    625      11.2694      0.00000
    626      11.2872      0.00000
    627      11.3085      0.00000
    628      11.3551      0.00000
    629      11.3732      0.00000
    630      11.3830      0.00000
    631      11.4039      0.00000
    632      11.4194      0.00000
    633      11.4378      0.00000
    634      11.4460      0.00000
    635      11.4827      0.00000
    636      11.5055      0.00000
    637      11.5470      0.00000
    638      11.5645      0.00000
    639      11.5898      0.00000
    640      11.6157      0.00000
    641      11.6320      0.00000
    642      11.6497      0.00000
    643      11.7109      0.00000
    644      11.7233      0.00000
    645      11.7458      0.00000
    646      11.7520      0.00000
    647      11.7767      0.00000
    648      11.7918      0.00000
    649      11.8144      0.00000
    650      11.8656      0.00000
    651      11.8793      0.00000
    652      11.8942      0.00000
    653      11.9131      0.00000
    654      11.9353      0.00000
    655      11.9512      0.00000
    656      11.9633      0.00000
    657      11.9818      0.00000
    658      12.0008      0.00000
    659      12.0209      0.00000
    660      12.0271      0.00000
    661      12.1074      0.00000
    662      12.1256      0.00000
    663      12.1695      0.00000
    664      12.1961      0.00000
    665      12.2306      0.00000
    666      12.2442      0.00000
    667      12.3062      0.00000
    668      12.4081      0.00000
    669      12.4319      0.00000
    670      12.4633      0.00000
    671      12.4917      0.00000
    672      12.5208      0.00000
    673      12.5701      0.00000
    674      12.5982      0.00000
    675      12.6240      0.00000
    676      12.6548      0.00000
    677      12.6826      0.00000
    678      12.7352      0.00000
    679      12.7481      0.00000
    680      12.7792      0.00000
    681      12.7995      0.00000
    682      12.8271      0.00000
    683      12.8462      0.00000
    684      12.8935      0.00000
    685      12.9165      0.00000
    686      13.1052      0.00000
    687      13.1670      0.00000
    688      13.1938      0.00000
    689      13.2066      0.00000
    690      13.2404      0.00000
    691      13.2487      0.00000
    692      13.2958      0.00000
    693      13.3141      0.00000
    694      13.3391      0.00000
    695      13.3862      0.00000
    696      13.4101      0.00000
 Fermi energy:         3.6252622507

 spin component 2

 k-point     1 :       0.0000    0.0000    0.0000
  band No.  band energies     occupation 
      1     -50.5759      1.00000
      2     -50.5705      1.00000
      3     -50.5427      1.00000
      4     -50.5232      1.00000
      5     -50.5029      1.00000
      6     -50.4872      1.00000
      7     -50.4770      1.00000
      8     -50.4760      1.00000
      9     -50.4729      1.00000
     10     -50.4725      1.00000
     11     -50.4640      1.00000
     12     -50.4603      1.00000
     13     -50.4587      1.00000
     14     -50.4530      1.00000
     15     -50.4484      1.00000
     16     -50.4437      1.00000
     17     -50.4420      1.00000
     18     -50.4351      1.00000
     19     -50.4324      1.00000
     20     -50.4305      1.00000
     21     -50.4176      1.00000
     22     -50.4110      1.00000
     23     -50.4103      1.00000
     24     -50.4084      1.00000
     25     -50.3954      1.00000
     26     -50.3899      1.00000
     27     -50.3870      1.00000
     28     -50.3849      1.00000
     29     -50.3810      1.00000
     30     -50.3810      1.00000
     31     -50.3723      1.00000
     32     -50.3710      1.00000
     33     -50.3696      1.00000
     34     -50.3685      1.00000
     35     -50.3617      1.00000
     36     -50.3593      1.00000
     37     -50.3540      1.00000
     38     -50.3485      1.00000
     39     -50.3485      1.00000
     40     -50.3482      1.00000
     41     -50.3434      1.00000
     42     -50.3400      1.00000
     43     -50.3280      1.00000
     44     -50.3231      1.00000
     45     -50.3164      1.00000
     46     -50.3099      1.00000
     47     -50.3039      1.00000
     48     -50.3036      1.00000
     49     -50.3021      1.00000
     50     -50.2977      1.00000
     51     -50.2956      1.00000
     52     -50.2924      1.00000
     53     -50.2877      1.00000
     54     -50.2837      1.00000
     55     -50.2837      1.00000
     56     -50.2738      1.00000
     57     -50.2731      1.00000
     58     -50.2723      1.00000
     59     -50.2673      1.00000
     60     -50.2665      1.00000
     61     -50.2451      1.00000
     62     -50.2398      1.00000
     63     -50.2340      1.00000
     64     -50.2323      1.00000
     65     -50.2306      1.00000
     66     -50.2240      1.00000
     67     -50.2113      1.00000
     68     -50.1825      1.00000
     69     -50.1747      1.00000
     70     -46.8880      1.00000
     71     -46.4364      1.00000
     72     -46.3369      1.00000
     73     -18.9441      1.00000
     74     -18.7817      1.00000
     75     -18.7395      1.00000
     76     -18.4627      1.00000
     77     -18.3541      1.00000
     78     -18.2978      1.00000
     79     -18.2539      1.00000
     80     -18.1914      1.00000
     81     -18.1736      1.00000
     82     -18.1403      1.00000
     83     -18.1194      1.00000
     84     -18.1148      1.00000
     85     -18.1088      1.00000
     86     -18.1005      1.00000
     87     -18.0954      1.00000
     88     -18.0807      1.00000
     89     -18.0709      1.00000
     90     -18.0488      1.00000
     91     -18.0376      1.00000
     92     -18.0191      1.00000
     93     -17.9923      1.00000
     94     -17.9784      1.00000
     95     -17.9713      1.00000
     96     -17.9363      1.00000
     97     -17.9309      1.00000
     98     -17.9216      1.00000
     99     -17.8706      1.00000
    100     -16.0785      1.00000
    101     -16.0075      1.00000
    102     -15.9578      1.00000
    103     -15.9553      1.00000
    104     -15.9293      1.00000
    105     -15.9244      1.00000
    106     -15.9173      1.00000
    107     -15.8889      1.00000
    108     -15.8618      1.00000
    109     -15.8446      1.00000
    110     -15.8195      1.00000
    111     -15.8078      1.00000
    112     -15.7998      1.00000
    113     -15.7891      1.00000
    114     -15.7852      1.00000
    115     -15.7797      1.00000
    116     -15.7748      1.00000
    117     -15.7680      1.00000
    118     -15.7641      1.00000
    119     -15.7518      1.00000
    120     -15.7237      1.00000
    121     -15.7017      1.00000
    122     -15.6906      1.00000
    123     -15.6743      1.00000
    124     -15.6607      1.00000
    125     -15.6546      1.00000
    126     -15.6464      1.00000
    127     -15.6342      1.00000
    128     -15.6217      1.00000
    129     -15.6188      1.00000
    130     -15.5988      1.00000
    131     -15.5931      1.00000
    132     -15.5544      1.00000
    133     -15.5521      1.00000
    134     -15.5464      1.00000
    135     -15.5266      1.00000
    136     -15.5130      1.00000
    137     -15.5103      1.00000
    138     -15.4979      1.00000
    139     -15.4896      1.00000
    140     -15.4811      1.00000
    141     -15.4722      1.00000
    142     -15.4676      1.00000
    143     -15.4615      1.00000
    144     -15.4584      1.00000
    145     -15.4552      1.00000
    146     -15.4501      1.00000
    147     -15.4366      1.00000
    148     -15.4274      1.00000
    149     -15.4244      1.00000
    150     -15.4151      1.00000
    151     -15.4088      1.00000
    152     -15.4051      1.00000
    153     -15.3998      1.00000
    154     -15.3926      1.00000
    155     -15.3903      1.00000
    156     -15.3860      1.00000
    157     -15.3780      1.00000
    158     -15.3708      1.00000
    159     -15.3598      1.00000
    160     -15.3453      1.00000
    161     -15.3381      1.00000
    162     -15.3310      1.00000
    163     -15.3225      1.00000
    164     -15.3171      1.00000
    165     -15.3133      1.00000
    166     -15.3045      1.00000
    167     -15.3020      1.00000
    168     -15.2836      1.00000
    169     -15.2467      1.00000
    170     -15.2284      1.00000
    171     -15.1945      1.00000
    172      -6.1897      1.00000
    173      -6.0081      1.00000
    174      -5.9794      1.00000
    175      -5.7344      1.00000
    176      -5.6800      1.00000
    177      -5.6322      1.00000
    178      -5.6161      1.00000
    179      -5.5801      1.00000
    180      -5.5600      1.00000
    181      -5.5371      1.00000
    182      -5.5226      1.00000
    183      -5.5210      1.00000
    184      -5.4681      1.00000
    185      -5.4347      1.00000
    186      -5.4235      1.00000
    187      -5.4186      1.00000
    188      -5.4080      1.00000
    189      -5.4049      1.00000
    190      -5.3845      1.00000
    191      -5.3540      1.00000
    192      -5.3146      1.00000
    193      -5.1910      1.00000
    194      -5.1844      1.00000
    195      -5.1587      1.00000
    196      -4.3388      1.00000
    197      -4.1271      1.00000
    198      -4.0945      1.00000
    199      -3.9832      1.00000
    200      -3.8693      1.00000
    201      -3.8384      1.00000
    202      -3.7457      1.00000
    203      -3.7053      1.00000
    204      -3.6879      1.00000
    205      -3.6708      1.00000
    206      -3.6371      1.00000
    207      -3.6129      1.00000
    208      -3.5955      1.00000
    209      -3.5764      1.00000
    210      -3.5736      1.00000
    211      -3.5513      1.00000
    212      -3.5297      1.00000
    213      -3.5222      1.00000
    214      -3.4893      1.00000
    215      -3.3965      1.00000
    216      -3.3829      1.00000
    217      -3.3795      1.00000
    218      -3.3393      1.00000
    219      -3.3222      1.00000
    220      -3.3130      1.00000
    221      -3.3076      1.00000
    222      -3.2976      1.00000
    223      -3.2928      1.00000
    224      -3.2850      1.00000
    225      -3.2762      1.00000
    226      -3.2569      1.00000
    227      -3.2496      1.00000
    228      -3.2393      1.00000
    229      -3.2302      1.00000
    230      -3.2242      1.00000
    231      -3.2165      1.00000
    232      -3.2116      1.00000
    233      -3.2064      1.00000
    234      -3.2005      1.00000
    235      -3.1866      1.00000
    236      -3.1746      1.00000
    237      -3.1647      1.00000
    238      -3.1076      1.00000
    239      -3.1019      1.00000
    240      -3.0871      1.00000
    241      -3.0720      1.00000
    242      -3.0484      1.00000
    243      -3.0419      1.00000
    244      -3.0050      1.00000
    245      -2.9672      1.00000
    246      -2.9531      1.00000
    247      -2.9369      1.00000
    248      -2.9255      1.00000
    249      -2.9004      1.00000
    250      -2.8839      1.00000
    251      -2.8770      1.00000
    252      -2.7955      1.00000
    253      -2.7853      1.00000
    254      -2.7671      1.00000
    255      -2.7487      1.00000
    256      -2.7378      1.00000
    257      -2.7248      1.00000
    258      -2.7179      1.00000
    259      -2.6335      1.00000
    260      -2.6130      1.00000
    261      -2.5492      1.00000
    262      -2.5147      1.00000
    263      -2.5121      1.00000
    264      -2.4995      1.00000
    265      -2.4904      1.00000
    266      -2.4719      1.00000
    267      -2.4257      1.00000
    268      -2.0398      1.00000
    269      -2.0033      1.00000
    270      -1.9836      1.00000
    271      -1.9753      1.00000
    272      -1.9495      1.00000
    273      -1.8274      1.00000
    274      -1.7949      1.00000
    275      -1.7599      1.00000
    276      -1.7482      1.00000
    277      -1.6961      1.00000
    278      -1.6857      1.00000
    279      -1.6749      1.00000
    280      -1.6675      1.00000
    281      -1.6541      1.00000
    282      -1.6434      1.00000
    283      -1.6252      1.00000
    284      -1.6009      1.00000
    285      -1.5141      1.00000
    286      -1.4926      1.00000
    287      -1.4448      1.00000
    288      -1.3139      1.00000
    289      -1.2666      1.00000
    290      -1.2517      1.00000
    291      -1.2102      1.00000
    292      -1.1875      1.00000
    293      -1.1581      1.00000
    294      -1.1252      1.00000
    295      -1.1186      1.00000
    296      -1.0839      1.00000
    297      -1.0510      1.00000
    298      -1.0288      1.00000
    299      -0.9836      1.00000
    300      -0.9645      1.00000
    301      -0.9537      1.00000
    302      -0.9365      1.00000
    303      -0.9118      1.00000
    304      -0.8963      1.00000
    305      -0.8900      1.00000
    306      -0.8786      1.00000
    307      -0.8640      1.00000
    308      -0.8037      1.00000
    309      -0.7801      1.00000
    310      -0.7750      1.00000
    311      -0.7624      1.00000
    312      -0.7547      1.00000
    313      -0.7422      1.00000
    314      -0.7378      1.00000
    315      -0.7220      1.00000
    316      -0.6955      1.00000
    317      -0.6732      1.00000
    318      -0.6711      1.00000
    319      -0.6451      1.00000
    320      -0.6266      1.00000
    321      -0.6071      1.00000
    322      -0.5978      1.00000
    323      -0.5859      1.00000
    324      -0.5809      1.00000
    325      -0.5769      1.00000
    326      -0.5548      1.00000
    327      -0.5446      1.00000
    328      -0.5211      1.00000
    329      -0.5082      1.00000
    330      -0.4845      1.00000
    331      -0.4507      1.00000
    332      -0.4109      1.00000
    333      -0.3991      1.00000
    334      -0.3786      1.00000
    335      -0.3528      1.00000
    336      -0.2910      1.00000
    337      -0.2316      1.00000
    338      -0.2070      1.00000
    339      -0.1729      1.00000
    340      -0.1209      1.00000
    341      -0.1143      1.00000
    342      -0.1011      1.00000
    343      -0.0862      1.00000
    344      -0.0803      1.00000
    345      -0.0650      1.00000
    346      -0.0342      1.00000
    347      -0.0234      1.00000
    348      -0.0010      1.00000
    349       0.0064      1.00000
    350       0.0166      1.00000
    351       0.0320      1.00000
    352       0.0347      1.00000
    353       0.0440      1.00000
    354       0.0477      1.00000
    355       0.1152      1.00000
    356       0.1159      1.00000
    357       0.1442      1.00000
    358       0.1706      1.00000
    359       0.1852      1.00000
    360       0.1988      1.00000
    361       0.2151      1.00000
    362       0.2338      1.00000
    363       0.2826      1.00000
    364       0.3020      1.00000
    365       0.3063      1.00000
    366       0.3121      1.00000
    367       0.3425      1.00000
    368       0.3452      1.00000
    369       0.3553      1.00000
    370       0.3808      1.00000
    371       0.3838      1.00000
    372       0.3995      1.00000
    373       0.4094      1.00000
    374       0.4135      1.00000
    375       0.4250      1.00000
    376       0.4398      1.00000
    377       0.4758      1.00000
    378       0.4823      1.00000
    379       0.5067      1.00000
    380       0.5163      1.00000
    381       0.5239      1.00000
    382       0.5337      1.00000
    383       0.5536      1.00000
    384       0.5588      1.00000
    385       0.5966      1.00000
    386       0.6014      1.00000
    387       0.6371      1.00000
    388       0.6567      1.00000
    389       0.6590      1.00000
    390       0.6625      1.00000
    391       0.6899      1.00000
    392       0.6964      1.00000
    393       0.7407      1.00000
    394       0.7459      1.00000
    395       0.7540      1.00000
    396       0.7667      1.00000
    397       0.7777      1.00000
    398       0.8075      1.00000
    399       0.8146      1.00000
    400       0.8248      1.00000
    401       0.8399      1.00000
    402       0.8779      1.00000
    403       0.8823      1.00000
    404       0.8978      1.00000
    405       0.9036      1.00000
    406       0.9299      1.00000
    407       0.9893      1.00000
    408       1.0139      1.00000
    409       1.0585      1.00000
    410       1.0672      1.00000
    411       1.0746      1.00000
    412       1.0908      1.00000
    413       1.1266      1.00000
    414       1.1967      1.00000
    415       1.2153      1.00000
    416       1.2325      1.00000
    417       1.2440      1.00000
    418       1.2497      1.00000
    419       1.2630      1.00000
    420       1.2793      1.00000
    421       1.2984      1.00000
    422       1.3017      1.00000
    423       1.3193      1.00000
    424       1.3394      1.00000
    425       1.3425      1.00000
    426       1.3577      1.00000
    427       1.3807      1.00000
    428       1.3894      1.00000
    429       1.4176      1.00000
    430       1.4506      1.00000
    431       1.4546      1.00000
    432       1.4674      1.00000
    433       1.4746      1.00000
    434       1.4842      1.00000
    435       1.5053      1.00000
    436       1.5278      1.00000
    437       1.5359      1.00000
    438       1.5461      1.00000
    439       1.5666      1.00000
    440       1.5739      1.00000
    441       1.6220      1.00000
    442       1.6363      1.00000
    443       1.6584      1.00000
    444       1.6715      1.00000
    445       1.6793      1.00000
    446       1.6901      1.00000
    447       1.7546      1.00000
    448       1.7842      1.00000
    449       1.7951      1.00000
    450       1.8049      1.00000
    451       1.8167      1.00000
    452       1.8299      1.00000
    453       1.8408      1.00000
    454       1.8474      1.00000
    455       1.8672      1.00000
    456       1.8795      1.00000
    457       1.9905      1.00000
    458       2.0314      1.00000
    459       2.0803      1.00000
    460       3.2496      1.00000
    461       4.3244      0.00000
    462       4.3567      0.00000
    463       4.3856      0.00000
    464       4.3958      0.00000
    465       4.4328      0.00000
    466       4.4548      0.00000
    467       4.4662      0.00000
    468       4.4725      0.00000
    469       4.4817      0.00000
    470       4.4843      0.00000
    471       4.4904      0.00000
    472       4.5031      0.00000
    473       4.5277      0.00000
    474       4.5310      0.00000
    475       4.5419      0.00000
    476       4.5509      0.00000
    477       4.5552      0.00000
    478       4.5583      0.00000
    479       4.5716      0.00000
    480       4.5747      0.00000
    481       4.5806      0.00000
    482       4.5833      0.00000
    483       4.5902      0.00000
    484       4.5949      0.00000
    485       4.5988      0.00000
    486       4.6039      0.00000
    487       4.6082      0.00000
    488       4.6116      0.00000
    489       4.6202      0.00000
    490       4.6246      0.00000
    491       4.6268      0.00000
    492       4.6335      0.00000
    493       4.6390      0.00000
    494       4.6415      0.00000
    495       4.6497      0.00000
    496       4.6577      0.00000
    497       4.6685      0.00000
    498       4.6706      0.00000
    499       4.6790      0.00000
    500       4.6862      0.00000
    501       4.6900      0.00000
    502       4.7001      0.00000
    503       4.7029      0.00000
    504       4.7202      0.00000
    505       4.7227      0.00000
    506       4.7245      0.00000
    507       4.7282      0.00000
    508       4.7360      0.00000
    509       4.7541      0.00000
    510       4.7573      0.00000
    511       4.7732      0.00000
    512       4.7751      0.00000
    513       4.7860      0.00000
    514       4.7990      0.00000
    515       4.8007      0.00000
    516       4.8116      0.00000
    517       4.8131      0.00000
    518       4.8205      0.00000
    519       4.8291      0.00000
    520       4.8328      0.00000
    521       4.8476      0.00000
    522       4.8623      0.00000
    523       4.8678      0.00000
    524       4.8897      0.00000
    525       4.8994      0.00000
    526       4.9058      0.00000
    527       4.9193      0.00000
    528       4.9428      0.00000
    529       4.9533      0.00000
    530       4.9644      0.00000
    531       4.9741      0.00000
    532       4.9863      0.00000
    533       5.0041      0.00000
    534       5.0056      0.00000
    535       5.0111      0.00000
    536       5.0530      0.00000
    537       5.0565      0.00000
    538       5.0700      0.00000
    539       5.0950      0.00000
    540       5.1093      0.00000
    541       5.1131      0.00000
    542       5.1377      0.00000
    543       5.1574      0.00000
    544       5.1945      0.00000
    545       5.2086      0.00000
    546       5.2601      0.00000
    547       5.2732      0.00000
    548       5.2772      0.00000
    549       5.2961      0.00000
    550       5.3058      0.00000
    551       5.3341      0.00000
    552       5.3524      0.00000
    553       5.3669      0.00000
    554       5.3919      0.00000
    555       5.3978      0.00000
    556       5.4542      0.00000
    557       5.4919      0.00000
    558       5.5346      0.00000
    559       5.5484      0.00000
    560       5.5591      0.00000
    561       5.5699      0.00000
    562       5.5973      0.00000
    563       5.6496      0.00000
    564       5.6620      0.00000
    565       5.6716      0.00000
    566       5.6896      0.00000
    567       5.6991      0.00000
    568       5.7018      0.00000
    569       5.7151      0.00000
    570       5.7371      0.00000
    571       5.7398      0.00000
    572       5.7504      0.00000
    573       5.7703      0.00000
    574       5.7842      0.00000
    575       5.8097      0.00000
    576       7.8803      0.00000
    577       7.9012      0.00000
    578       7.9884      0.00000
    579       8.3160      0.00000
    580       8.7288      0.00000
    581       8.7633      0.00000
    582       9.1035      0.00000
    583       9.9284      0.00000
    584       9.9604      0.00000
    585      10.1428      0.00000
    586      10.1965      0.00000
    587      10.3559      0.00000
    588      10.4029      0.00000
    589      10.4342      0.00000
    590      10.4684      0.00000
    591      10.4948      0.00000
    592      10.5011      0.00000
    593      10.5316      0.00000
    594      10.5541      0.00000
    595      10.5815      0.00000
    596      10.5925      0.00000
    597      10.7441      0.00000
    598      10.8146      0.00000
    599      10.8609      0.00000
    600      10.9231      0.00000
    601      10.9695      0.00000
    602      10.9732      0.00000
    603      10.9788      0.00000
    604      11.0121      0.00000
    605      11.0362      0.00000
    606      11.1516      0.00000
    607      11.2145      0.00000
    608      11.2462      0.00000
    609      11.2578      0.00000
    610      11.2996      0.00000
    611      11.3364      0.00000
    612      11.3434      0.00000
    613      11.3660      0.00000
    614      11.4068      0.00000
    615      11.4208      0.00000
    616      11.4324      0.00000
    617      11.4797      0.00000
    618      11.5147      0.00000
    619      11.5284      0.00000
    620      11.5658      0.00000
    621      11.5717      0.00000
    622      11.5811      0.00000
    623      11.5962      0.00000
    624      11.6287      0.00000
    625      11.6542      0.00000
    626      11.6657      0.00000
    627      11.6670      0.00000
    628      11.6959      0.00000
    629      11.7016      0.00000
    630      11.7177      0.00000
    631      11.7388      0.00000
    632      11.7540      0.00000
    633      11.7645      0.00000
    634      11.7976      0.00000
    635      11.8210      0.00000
    636      11.8346      0.00000
    637      11.8562      0.00000
    638      11.9149      0.00000
    639      11.9512      0.00000
    640      11.9872      0.00000
    641      11.9935      0.00000
    642      12.0072      0.00000
    643      12.0116      0.00000
    644      12.0174      0.00000
    645      12.0535      0.00000
    646      12.1014      0.00000
    647      12.1233      0.00000
    648      12.1554      0.00000
    649      12.1789      0.00000
    650      12.2100      0.00000
    651      12.2337      0.00000
    652      12.2635      0.00000
    653      12.2793      0.00000
    654      12.3146      0.00000
    655      12.3425      0.00000
    656      12.3775      0.00000
    657      12.4002      0.00000
    658      12.4450      0.00000
    659      12.4554      0.00000
    660      12.4660      0.00000
    661      12.4895      0.00000
    662      12.4997      0.00000
    663      12.5088      0.00000
    664      12.5210      0.00000
    665      12.5345      0.00000
    666      12.5751      0.00000
    667      12.7123      0.00000
    668      12.7615      0.00000
    669      12.7791      0.00000
    670      12.7885      0.00000
    671      12.8019      0.00000
    672      12.8123      0.00000
    673      12.8294      0.00000
    674      12.8736      0.00000
    675      12.9001      0.00000
    676      12.9428      0.00000
    677      12.9909      0.00000
    678      13.1493      0.00000
    679      13.2021      0.00000
    680      13.2827      0.00000
    681      13.2981      0.00000
    682      13.3162      0.00000
    683      13.3549      0.00000
    684      13.3876      0.00000
    685      13.4028      0.00000
    686      13.4218      0.00000
    687      13.4731      0.00000
    688      13.5018      0.00000
    689      13.5257      0.00000
    690      13.5679      0.00000
    691      13.6211      0.00000
    692      13.6562      0.00000
    693      13.7391      0.00000
    694      13.7677      0.00000
    695      13.8331      0.00000
    696      13.8788      0.00000

 k-point     2 :       0.3333    0.0000    0.0000
  band No.  band energies     occupation 
      1     -50.5759      1.00000
      2     -50.5705      1.00000
      3     -50.5427      1.00000
      4     -50.5232      1.00000
      5     -50.5029      1.00000
      6     -50.4872      1.00000
      7     -50.4770      1.00000
      8     -50.4760      1.00000
      9     -50.4729      1.00000
     10     -50.4725      1.00000
     11     -50.4640      1.00000
     12     -50.4603      1.00000
     13     -50.4587      1.00000
     14     -50.4530      1.00000
     15     -50.4484      1.00000
     16     -50.4437      1.00000
     17     -50.4420      1.00000
     18     -50.4351      1.00000
     19     -50.4324      1.00000
     20     -50.4305      1.00000
     21     -50.4176      1.00000
     22     -50.4110      1.00000
     23     -50.4103      1.00000
     24     -50.4084      1.00000
     25     -50.3954      1.00000
     26     -50.3899      1.00000
     27     -50.3870      1.00000
     28     -50.3849      1.00000
     29     -50.3810      1.00000
     30     -50.3810      1.00000
     31     -50.3723      1.00000
     32     -50.3710      1.00000
     33     -50.3696      1.00000
     34     -50.3685      1.00000
     35     -50.3617      1.00000
     36     -50.3593      1.00000
     37     -50.3540      1.00000
     38     -50.3485      1.00000
     39     -50.3485      1.00000
     40     -50.3482      1.00000
     41     -50.3434      1.00000
     42     -50.3400      1.00000
     43     -50.3280      1.00000
     44     -50.3231      1.00000
     45     -50.3164      1.00000
     46     -50.3099      1.00000
     47     -50.3039      1.00000
     48     -50.3036      1.00000
     49     -50.3021      1.00000
     50     -50.2977      1.00000
     51     -50.2956      1.00000
     52     -50.2924      1.00000
     53     -50.2877      1.00000
     54     -50.2837      1.00000
     55     -50.2837      1.00000
     56     -50.2738      1.00000
     57     -50.2731      1.00000
     58     -50.2723      1.00000
     59     -50.2673      1.00000
     60     -50.2665      1.00000
     61     -50.2451      1.00000
     62     -50.2398      1.00000
     63     -50.2340      1.00000
     64     -50.2323      1.00000
     65     -50.2306      1.00000
     66     -50.2240      1.00000
     67     -50.2113      1.00000
     68     -50.1825      1.00000
     69     -50.1747      1.00000
     70     -46.8880      1.00000
     71     -46.4364      1.00000
     72     -46.3369      1.00000
     73     -18.9442      1.00000
     74     -18.7820      1.00000
     75     -18.7394      1.00000
     76     -18.4361      1.00000
     77     -18.3409      1.00000
     78     -18.2889      1.00000
     79     -18.2528      1.00000
     80     -18.2108      1.00000
     81     -18.1899      1.00000
     82     -18.1722      1.00000
     83     -18.1674      1.00000
     84     -18.1360      1.00000
     85     -18.1106      1.00000
     86     -18.1074      1.00000
     87     -18.1056      1.00000
     88     -18.0571      1.00000
     89     -18.0434      1.00000
     90     -18.0349      1.00000
     91     -18.0119      1.00000
     92     -18.0024      1.00000
     93     -17.9941      1.00000
     94     -17.9739      1.00000
     95     -17.9695      1.00000
     96     -17.9377      1.00000
     97     -17.9324      1.00000
     98     -17.9266      1.00000
     99     -17.8738      1.00000
    100     -16.0689      1.00000
    101     -15.9997      1.00000
    102     -15.9441      1.00000
    103     -15.9379      1.00000
    104     -15.9186      1.00000
    105     -15.9109      1.00000
    106     -15.8943      1.00000
    107     -15.8690      1.00000
    108     -15.8531      1.00000
    109     -15.8378      1.00000
    110     -15.8322      1.00000
    111     -15.8265      1.00000
    112     -15.8201      1.00000
    113     -15.8089      1.00000
    114     -15.7971      1.00000
    115     -15.7875      1.00000
    116     -15.7797      1.00000
    117     -15.7772      1.00000
    118     -15.7620      1.00000
    119     -15.7572      1.00000
    120     -15.7303      1.00000
    121     -15.7107      1.00000
    122     -15.7030      1.00000
    123     -15.6877      1.00000
    124     -15.6694      1.00000
    125     -15.6519      1.00000
    126     -15.6394      1.00000
    127     -15.6169      1.00000
    128     -15.6012      1.00000
    129     -15.5903      1.00000
    130     -15.5768      1.00000
    131     -15.5685      1.00000
    132     -15.5554      1.00000
    133     -15.5494      1.00000
    134     -15.5383      1.00000
    135     -15.5266      1.00000
    136     -15.5183      1.00000
    137     -15.5138      1.00000
    138     -15.5115      1.00000
    139     -15.5049      1.00000
    140     -15.5020      1.00000
    141     -15.4988      1.00000
    142     -15.4900      1.00000
    143     -15.4815      1.00000
    144     -15.4774      1.00000
    145     -15.4725      1.00000
    146     -15.4592      1.00000
    147     -15.4387      1.00000
    148     -15.4349      1.00000
    149     -15.4212      1.00000
    150     -15.4155      1.00000
    151     -15.4136      1.00000
    152     -15.3924      1.00000
    153     -15.3896      1.00000
    154     -15.3831      1.00000
    155     -15.3798      1.00000
    156     -15.3764      1.00000
    157     -15.3673      1.00000
    158     -15.3492      1.00000
    159     -15.3467      1.00000
    160     -15.3440      1.00000
    161     -15.3357      1.00000
    162     -15.3304      1.00000
    163     -15.3251      1.00000
    164     -15.3206      1.00000
    165     -15.3162      1.00000
    166     -15.3091      1.00000
    167     -15.3035      1.00000
    168     -15.2861      1.00000
    169     -15.2489      1.00000
    170     -15.2287      1.00000
    171     -15.1946      1.00000
    172      -6.0748      1.00000
    173      -5.8947      1.00000
    174      -5.8618      1.00000
    175      -5.7820      1.00000
    176      -5.7157      1.00000
    177      -5.6645      1.00000
    178      -5.6107      1.00000
    179      -5.5912      1.00000
    180      -5.5782      1.00000
    181      -5.5598      1.00000
    182      -5.5420      1.00000
    183      -5.5256      1.00000
    184      -5.4971      1.00000
    185      -5.4680      1.00000
    186      -5.4455      1.00000
    187      -5.4232      1.00000
    188      -5.4172      1.00000
    189      -5.4097      1.00000
    190      -5.3948      1.00000
    191      -5.3625      1.00000
    192      -5.3225      1.00000
    193      -5.2600      1.00000
    194      -5.2541      1.00000
    195      -5.1728      1.00000
    196      -4.2806      1.00000
    197      -4.0935      1.00000
    198      -4.0413      1.00000
    199      -4.0326      1.00000
    200      -3.9077      1.00000
    201      -3.8831      1.00000
    202      -3.7124      1.00000
    203      -3.6729      1.00000
    204      -3.6492      1.00000
    205      -3.6386      1.00000
    206      -3.6045      1.00000
    207      -3.5834      1.00000
    208      -3.5706      1.00000
    209      -3.5468      1.00000
    210      -3.5361      1.00000
    211      -3.5251      1.00000
    212      -3.5170      1.00000
    213      -3.4842      1.00000
    214      -3.4589      1.00000
    215      -3.4516      1.00000
    216      -3.4419      1.00000
    217      -3.4116      1.00000
    218      -3.4013      1.00000
    219      -3.3919      1.00000
    220      -3.3783      1.00000
    221      -3.3687      1.00000
    222      -3.3544      1.00000
    223      -3.3338      1.00000
    224      -3.2856      1.00000
    225      -3.2701      1.00000
    226      -3.2566      1.00000
    227      -3.2436      1.00000
    228      -3.2400      1.00000
    229      -3.2250      1.00000
    230      -3.2181      1.00000
    231      -3.2156      1.00000
    232      -3.2125      1.00000
    233      -3.1951      1.00000
    234      -3.1838      1.00000
    235      -3.1485      1.00000
    236      -3.1308      1.00000
    237      -3.0842      1.00000
    238      -3.0693      1.00000
    239      -3.0546      1.00000
    240      -3.0421      1.00000
    241      -3.0340      1.00000
    242      -3.0255      1.00000
    243      -3.0045      1.00000
    244      -2.9781      1.00000
    245      -2.9574      1.00000
    246      -2.9518      1.00000
    247      -2.9293      1.00000
    248      -2.9174      1.00000
    249      -2.9105      1.00000
    250      -2.8947      1.00000
    251      -2.8664      1.00000
    252      -2.8612      1.00000
    253      -2.8202      1.00000
    254      -2.7935      1.00000
    255      -2.7705      1.00000
    256      -2.7278      1.00000
    257      -2.7094      1.00000
    258      -2.6986      1.00000
    259      -2.6768      1.00000
    260      -2.6713      1.00000
    261      -2.6528      1.00000
    262      -2.6501      1.00000
    263      -2.6248      1.00000
    264      -2.5905      1.00000
    265      -2.5764      1.00000
    266      -2.5530      1.00000
    267      -2.4267      1.00000
    268      -1.9988      1.00000
    269      -1.9398      1.00000
    270      -1.9229      1.00000
    271      -1.8978      1.00000
    272      -1.8799      1.00000
    273      -1.7995      1.00000
    274      -1.7738      1.00000
    275      -1.7546      1.00000
    276      -1.7389      1.00000
    277      -1.7310      1.00000
    278      -1.7103      1.00000
    279      -1.7008      1.00000
    280      -1.6941      1.00000
    281      -1.6817      1.00000
    282      -1.6234      1.00000
    283      -1.6222      1.00000
    284      -1.5706      1.00000
    285      -1.4829      1.00000
    286      -1.4306      1.00000
    287      -1.4118      1.00000
    288      -1.2630      1.00000
    289      -1.2427      1.00000
    290      -1.1857      1.00000
    291      -1.1791      1.00000
    292      -1.1565      1.00000
    293      -1.1475      1.00000
    294      -1.0719      1.00000
    295      -1.0617      1.00000
    296      -1.0368      1.00000
    297      -0.9942      1.00000
    298      -0.9814      1.00000
    299      -0.9678      1.00000
    300      -0.9380      1.00000
    301      -0.9202      1.00000
    302      -0.9057      1.00000
    303      -0.8901      1.00000
    304      -0.8785      1.00000
    305      -0.8655      1.00000
    306      -0.8552      1.00000
    307      -0.8361      1.00000
    308      -0.8265      1.00000
    309      -0.8118      1.00000
    310      -0.7850      1.00000
    311      -0.7627      1.00000
    312      -0.7460      1.00000
    313      -0.7314      1.00000
    314      -0.7177      1.00000
    315      -0.7090      1.00000
    316      -0.6562      1.00000
    317      -0.6360      1.00000
    318      -0.6310      1.00000
    319      -0.6160      1.00000
    320      -0.6011      1.00000
    321      -0.5972      1.00000
    322      -0.5715      1.00000
    323      -0.5633      1.00000
    324      -0.5431      1.00000
    325      -0.5378      1.00000
    326      -0.5132      1.00000
    327      -0.5025      1.00000
    328      -0.4645      1.00000
    329      -0.4565      1.00000
    330      -0.4472      1.00000
    331      -0.4409      1.00000
    332      -0.4338      1.00000
    333      -0.3997      1.00000
    334      -0.3752      1.00000
    335      -0.3320      1.00000
    336      -0.2998      1.00000
    337      -0.2480      1.00000
    338      -0.2135      1.00000
    339      -0.1789      1.00000
    340      -0.1671      1.00000
    341      -0.1557      1.00000
    342      -0.1474      1.00000
    343      -0.1439      1.00000
    344      -0.1189      1.00000
    345      -0.1106      1.00000
    346      -0.1017      1.00000
    347      -0.0948      1.00000
    348      -0.0882      1.00000
    349      -0.0672      1.00000
    350      -0.0515      1.00000
    351      -0.0410      1.00000
    352      -0.0084      1.00000
    353       0.0144      1.00000
    354       0.0353      1.00000
    355       0.0475      1.00000
    356       0.0515      1.00000
    357       0.0817      1.00000
    358       0.0920      1.00000
    359       0.1043      1.00000
    360       0.1093      1.00000
    361       0.1305      1.00000
    362       0.1327      1.00000
    363       0.1743      1.00000
    364       0.2140      1.00000
    365       0.2471      1.00000
    366       0.2856      1.00000
    367       0.3058      1.00000
    368       0.3277      1.00000
    369       0.3349      1.00000
    370       0.3413      1.00000
    371       0.3592      1.00000
    372       0.3678      1.00000
    373       0.3781      1.00000
    374       0.3912      1.00000
    375       0.4066      1.00000
    376       0.4127      1.00000
    377       0.4343      1.00000
    378       0.4419      1.00000
    379       0.4460      1.00000
    380       0.4588      1.00000
    381       0.4895      1.00000
    382       0.5244      1.00000
    383       0.5476      1.00000
    384       0.5575      1.00000
    385       0.5645      1.00000
    386       0.5966      1.00000
    387       0.6172      1.00000
    388       0.6968      1.00000
    389       0.7209      1.00000
    390       0.7722      1.00000
    391       0.7746      1.00000
    392       0.8022      1.00000
    393       0.8185      1.00000
    394       0.8266      1.00000
    395       0.8367      1.00000
    396       0.8458      1.00000
    397       0.8592      1.00000
    398       0.8807      1.00000
    399       0.8899      1.00000
    400       0.9144      1.00000
    401       0.9388      1.00000
    402       0.9817      1.00000
    403       0.9933      1.00000
    404       1.0067      1.00000
    405       1.0141      1.00000
    406       1.0266      1.00000
    407       1.0272      1.00000
    408       1.0397      1.00000
    409       1.0678      1.00000
    410       1.0958      1.00000
    411       1.1133      1.00000
    412       1.1255      1.00000
    413       1.1601      1.00000
    414       1.1735      1.00000
    415       1.1965      1.00000
    416       1.2073      1.00000
    417       1.2198      1.00000
    418       1.2290      1.00000
    419       1.2390      1.00000
    420       1.2433      1.00000
    421       1.2558      1.00000
    422       1.2718      1.00000
    423       1.3117      1.00000
    424       1.3251      1.00000
    425       1.3362      1.00000
    426       1.3526      1.00000
    427       1.3659      1.00000
    428       1.3909      1.00000
    429       1.4205      1.00000
    430       1.4258      1.00000
    431       1.4366      1.00000
    432       1.4441      1.00000
    433       1.4552      1.00000
    434       1.4650      1.00000
    435       1.4850      1.00000
    436       1.5154      1.00000
    437       1.5248      1.00000
    438       1.5361      1.00000
    439       1.5587      1.00000
    440       1.5896      1.00000
    441       1.6024      1.00000
    442       1.6273      1.00000
    443       1.6546      1.00000
    444       1.6588      1.00000
    445       1.6667      1.00000
    446       1.6760      1.00000
    447       1.6848      1.00000
    448       1.6915      1.00000
    449       1.7264      1.00000
    450       1.7957      1.00000
    451       1.8110      1.00000
    452       1.8179      1.00000
    453       1.8266      1.00000
    454       1.8555      1.00000
    455       1.8688      1.00000
    456       1.9235      1.00000
    457       2.0164      1.00000
    458       2.0316      1.00000
    459       2.0894      1.00000
    460       3.2506      1.00000
    461       4.3327      0.00000
    462       4.3669      0.00000
    463       4.3832      0.00000
    464       4.3944      0.00000
    465       4.4279      0.00000
    466       4.4612      0.00000
    467       4.4706      0.00000
    468       4.4751      0.00000
    469       4.4808      0.00000
    470       4.4933      0.00000
    471       4.4960      0.00000
    472       4.5057      0.00000
    473       4.5084      0.00000
    474       4.5207      0.00000
    475       4.5252      0.00000
    476       4.5381      0.00000
    477       4.5623      0.00000
    478       4.5683      0.00000
    479       4.5709      0.00000
    480       4.5786      0.00000
    481       4.5823      0.00000
    482       4.5864      0.00000
    483       4.5985      0.00000
    484       4.5995      0.00000
    485       4.6040      0.00000
    486       4.6111      0.00000
    487       4.6196      0.00000
    488       4.6212      0.00000
    489       4.6274      0.00000
    490       4.6341      0.00000
    491       4.6401      0.00000
    492       4.6470      0.00000
    493       4.6485      0.00000
    494       4.6577      0.00000
    495       4.6603      0.00000
    496       4.6669      0.00000
    497       4.6773      0.00000
    498       4.6789      0.00000
    499       4.6822      0.00000
    500       4.6871      0.00000
    501       4.6942      0.00000
    502       4.7034      0.00000
    503       4.7101      0.00000
    504       4.7170      0.00000
    505       4.7228      0.00000
    506       4.7307      0.00000
    507       4.7352      0.00000
    508       4.7414      0.00000
    509       4.7509      0.00000
    510       4.7614      0.00000
    511       4.7666      0.00000
    512       4.7749      0.00000
    513       4.7808      0.00000
    514       4.7917      0.00000
    515       4.7953      0.00000
    516       4.8048      0.00000
    517       4.8090      0.00000
    518       4.8157      0.00000
    519       4.8175      0.00000
    520       4.8247      0.00000
    521       4.8410      0.00000
    522       4.8517      0.00000
    523       4.8693      0.00000
    524       4.8797      0.00000
    525       4.8870      0.00000
    526       4.8989      0.00000
    527       4.9078      0.00000
    528       4.9119      0.00000
    529       4.9257      0.00000
    530       4.9375      0.00000
    531       4.9488      0.00000
    532       4.9578      0.00000
    533       4.9781      0.00000
    534       4.9995      0.00000
    535       5.0020      0.00000
    536       5.0355      0.00000
    537       5.0433      0.00000
    538       5.0752      0.00000
    539       5.0866      0.00000
    540       5.0921      0.00000
    541       5.0983      0.00000
    542       5.1174      0.00000
    543       5.1694      0.00000
    544       5.1929      0.00000
    545       5.2242      0.00000
    546       5.2510      0.00000
    547       5.2611      0.00000
    548       5.2831      0.00000
    549       5.2916      0.00000
    550       5.3004      0.00000
    551       5.3207      0.00000
    552       5.3416      0.00000
    553       5.3522      0.00000
    554       5.3871      0.00000
    555       5.4668      0.00000
    556       5.4800      0.00000
    557       5.5082      0.00000
    558       5.5522      0.00000
    559       5.5716      0.00000
    560       5.5789      0.00000
    561       5.5923      0.00000
    562       5.6102      0.00000
    563       5.6269      0.00000
    564       5.6418      0.00000
    565       5.6785      0.00000
    566       5.6821      0.00000
    567       5.6931      0.00000
    568       5.7040      0.00000
    569       5.7131      0.00000
    570       5.7352      0.00000
    571       5.7482      0.00000
    572       5.7534      0.00000
    573       5.7741      0.00000
    574       5.7945      0.00000
    575       5.8175      0.00000
    576       7.8822      0.00000
    577       7.9898      0.00000
    578       8.1881      0.00000
    579       8.3752      0.00000
    580       8.9860      0.00000
    581       9.0246      0.00000
    582       9.1132      0.00000
    583       9.1852      0.00000
    584       9.7082      0.00000
    585       9.7368      0.00000
    586      10.0133      0.00000
    587      10.0341      0.00000
    588      10.4495      0.00000
    589      10.4926      0.00000
    590      10.5122      0.00000
    591      10.5296      0.00000
    592      10.5409      0.00000
    593      10.5583      0.00000
    594      10.7365      0.00000
    595      10.7937      0.00000
    596      10.8085      0.00000
    597      10.8638      0.00000
    598      10.9258      0.00000
    599      10.9535      0.00000
    600      10.9572      0.00000
    601      10.9764      0.00000
    602      10.9921      0.00000
    603      11.0961      0.00000
    604      11.1040      0.00000
    605      11.1215      0.00000
    606      11.1783      0.00000
    607      11.1955      0.00000
    608      11.2516      0.00000
    609      11.2682      0.00000
    610      11.2963      0.00000
    611      11.3062      0.00000
    612      11.3136      0.00000
    613      11.3764      0.00000
    614      11.4060      0.00000
    615      11.4284      0.00000
    616      11.4753      0.00000
    617      11.5045      0.00000
    618      11.5295      0.00000
    619      11.5454      0.00000
    620      11.5501      0.00000
    621      11.5676      0.00000
    622      11.5856      0.00000
    623      11.5992      0.00000
    624      11.6123      0.00000
    625      11.6227      0.00000
    626      11.6347      0.00000
    627      11.6435      0.00000
    628      11.6543      0.00000
    629      11.6651      0.00000
    630      11.6798      0.00000
    631      11.6895      0.00000
    632      11.7167      0.00000
    633      11.7618      0.00000
    634      11.7936      0.00000
    635      11.8231      0.00000
    636      11.8337      0.00000
    637      11.9094      0.00000
    638      11.9273      0.00000
    639      11.9498      0.00000
    640      11.9629      0.00000
    641      11.9720      0.00000
    642      12.0048      0.00000
    643      12.0216      0.00000
    644      12.0287      0.00000
    645      12.0759      0.00000
    646      12.1454      0.00000
    647      12.1682      0.00000
    648      12.1970      0.00000
    649      12.2246      0.00000
    650      12.2400      0.00000
    651      12.2506      0.00000
    652      12.2653      0.00000
    653      12.2771      0.00000
    654      12.2947      0.00000
    655      12.2999      0.00000
    656      12.3180      0.00000
    657      12.3653      0.00000
    658      12.3885      0.00000
    659      12.4036      0.00000
    660      12.4111      0.00000
    661      12.4377      0.00000
    662      12.4799      0.00000
    663      12.5202      0.00000
    664      12.5325      0.00000
    665      12.5611      0.00000
    666      12.5732      0.00000
    667      12.5809      0.00000
    668      12.6115      0.00000
    669      12.6319      0.00000
    670      12.7958      0.00000
    671      12.8300      0.00000
    672      12.8986      0.00000
    673      12.9092      0.00000
    674      12.9617      0.00000
    675      13.1491      0.00000
    676      13.1838      0.00000
    677      13.2062      0.00000
    678      13.2182      0.00000
    679      13.2343      0.00000
    680      13.2803      0.00000
    681      13.3004      0.00000
    682      13.3437      0.00000
    683      13.3866      0.00000
    684      13.3997      0.00000
    685      13.4372      0.00000
    686      13.4547      0.00000
    687      13.4672      0.00000
    688      13.4865      0.00000
    689      13.5010      0.00000
    690      13.5441      0.00000
    691      13.5772      0.00000
    692      13.5871      0.00000
    693      13.5987      0.00000
    694      13.6965      0.00000
    695      13.7504      0.00000
    696      13.8247      0.00000

 k-point     3 :       0.0000    0.0000    0.3333
  band No.  band energies     occupation 
      1     -50.5759      1.00000
      2     -50.5705      1.00000
      3     -50.5427      1.00000
      4     -50.5232      1.00000
      5     -50.5029      1.00000
      6     -50.4872      1.00000
      7     -50.4770      1.00000
      8     -50.4760      1.00000
      9     -50.4729      1.00000
     10     -50.4725      1.00000
     11     -50.4640      1.00000
     12     -50.4603      1.00000
     13     -50.4587      1.00000
     14     -50.4530      1.00000
     15     -50.4484      1.00000
     16     -50.4437      1.00000
     17     -50.4420      1.00000
     18     -50.4351      1.00000
     19     -50.4324      1.00000
     20     -50.4305      1.00000
     21     -50.4176      1.00000
     22     -50.4110      1.00000
     23     -50.4103      1.00000
     24     -50.4084      1.00000
     25     -50.3954      1.00000
     26     -50.3899      1.00000
     27     -50.3870      1.00000
     28     -50.3849      1.00000
     29     -50.3810      1.00000
     30     -50.3810      1.00000
     31     -50.3723      1.00000
     32     -50.3710      1.00000
     33     -50.3696      1.00000
     34     -50.3685      1.00000
     35     -50.3617      1.00000
     36     -50.3593      1.00000
     37     -50.3540      1.00000
     38     -50.3485      1.00000
     39     -50.3485      1.00000
     40     -50.3482      1.00000
     41     -50.3434      1.00000
     42     -50.3400      1.00000
     43     -50.3280      1.00000
     44     -50.3231      1.00000
     45     -50.3164      1.00000
     46     -50.3099      1.00000
     47     -50.3039      1.00000
     48     -50.3036      1.00000
     49     -50.3021      1.00000
     50     -50.2977      1.00000
     51     -50.2956      1.00000
     52     -50.2924      1.00000
     53     -50.2877      1.00000
     54     -50.2837      1.00000
     55     -50.2837      1.00000
     56     -50.2738      1.00000
     57     -50.2731      1.00000
     58     -50.2723      1.00000
     59     -50.2673      1.00000
     60     -50.2665      1.00000
     61     -50.2451      1.00000
     62     -50.2398      1.00000
     63     -50.2340      1.00000
     64     -50.2323      1.00000
     65     -50.2306      1.00000
     66     -50.2240      1.00000
     67     -50.2113      1.00000
     68     -50.1825      1.00000
     69     -50.1747      1.00000
     70     -46.8880      1.00000
     71     -46.4364      1.00000
     72     -46.3369      1.00000
     73     -18.9455      1.00000
     74     -18.7824      1.00000
     75     -18.7393      1.00000
     76     -18.4347      1.00000
     77     -18.3429      1.00000
     78     -18.2882      1.00000
     79     -18.2603      1.00000
     80     -18.2319      1.00000
     81     -18.1903      1.00000
     82     -18.1561      1.00000
     83     -18.1210      1.00000
     84     -18.1157      1.00000
     85     -18.1037      1.00000
     86     -18.0877      1.00000
     87     -18.0724      1.00000
     88     -18.0627      1.00000
     89     -18.0535      1.00000
     90     -18.0374      1.00000
     91     -18.0278      1.00000
     92     -18.0175      1.00000
     93     -18.0084      1.00000
     94     -18.0039      1.00000
     95     -17.9880      1.00000
     96     -17.9717      1.00000
     97     -17.9310      1.00000
     98     -17.9135      1.00000
     99     -17.8660      1.00000
    100     -16.0683      1.00000
    101     -15.9822      1.00000
    102     -15.9380      1.00000
    103     -15.9354      1.00000
    104     -15.9257      1.00000
    105     -15.9116      1.00000
    106     -15.9005      1.00000
    107     -15.8890      1.00000
    108     -15.8722      1.00000
    109     -15.8607      1.00000
    110     -15.8434      1.00000
    111     -15.8220      1.00000
    112     -15.8107      1.00000
    113     -15.7776      1.00000
    114     -15.7631      1.00000
    115     -15.7616      1.00000
    116     -15.7530      1.00000
    117     -15.7419      1.00000
    118     -15.7329      1.00000
    119     -15.7302      1.00000
    120     -15.7224      1.00000
    121     -15.7058      1.00000
    122     -15.7018      1.00000
    123     -15.6836      1.00000
    124     -15.6707      1.00000
    125     -15.6639      1.00000
    126     -15.6550      1.00000
    127     -15.6459      1.00000
    128     -15.6355      1.00000
    129     -15.6224      1.00000
    130     -15.6092      1.00000
    131     -15.5991      1.00000
    132     -15.5849      1.00000
    133     -15.5728      1.00000
    134     -15.5517      1.00000
    135     -15.5400      1.00000
    136     -15.5145      1.00000
    137     -15.5073      1.00000
    138     -15.4979      1.00000
    139     -15.4910      1.00000
    140     -15.4806      1.00000
    141     -15.4740      1.00000
    142     -15.4697      1.00000
    143     -15.4667      1.00000
    144     -15.4595      1.00000
    145     -15.4542      1.00000
    146     -15.4486      1.00000
    147     -15.4347      1.00000
    148     -15.4294      1.00000
    149     -15.4212      1.00000
    150     -15.4158      1.00000
    151     -15.4072      1.00000
    152     -15.4035      1.00000
    153     -15.4000      1.00000
    154     -15.3973      1.00000
    155     -15.3904      1.00000
    156     -15.3837      1.00000
    157     -15.3761      1.00000
    158     -15.3617      1.00000
    159     -15.3552      1.00000
    160     -15.3466      1.00000
    161     -15.3397      1.00000
    162     -15.3314      1.00000
    163     -15.3261      1.00000
    164     -15.3217      1.00000
    165     -15.3150      1.00000
    166     -15.3055      1.00000
    167     -15.3024      1.00000
    168     -15.2856      1.00000
    169     -15.2496      1.00000
    170     -15.2290      1.00000
    171     -15.1943      1.00000
    172      -6.1275      1.00000
    173      -5.9716      1.00000
    174      -5.9234      1.00000
    175      -5.9085      1.00000
    176      -5.7775      1.00000
    177      -5.7505      1.00000
    178      -5.6124      1.00000
    179      -5.5730      1.00000
    180      -5.5465      1.00000
    181      -5.5105      1.00000
    182      -5.4928      1.00000
    183      -5.4830      1.00000
    184      -5.4648      1.00000
    185      -5.4299      1.00000
    186      -5.4086      1.00000
    187      -5.3898      1.00000
    188      -5.3710      1.00000
    189      -5.3619      1.00000
    190      -5.3249      1.00000
    191      -5.3069      1.00000
    192      -5.2797      1.00000
    193      -5.2094      1.00000
    194      -5.2018      1.00000
    195      -5.1752      1.00000
    196      -4.2107      1.00000
    197      -4.0293      1.00000
    198      -3.9900      1.00000
    199      -3.9608      1.00000
    200      -3.9107      1.00000
    201      -3.8179      1.00000
    202      -3.7913      1.00000
    203      -3.7715      1.00000
    204      -3.7421      1.00000
    205      -3.6682      1.00000
    206      -3.6442      1.00000
    207      -3.6232      1.00000
    208      -3.6046      1.00000
    209      -3.5875      1.00000
    210      -3.5557      1.00000
    211      -3.5512      1.00000
    212      -3.5307      1.00000
    213      -3.5197      1.00000
    214      -3.5090      1.00000
    215      -3.5015      1.00000
    216      -3.4851      1.00000
    217      -3.4755      1.00000
    218      -3.4353      1.00000
    219      -3.3817      1.00000
    220      -3.3587      1.00000
    221      -3.3438      1.00000
    222      -3.3260      1.00000
    223      -3.3087      1.00000
    224      -3.3030      1.00000
    225      -3.2883      1.00000
    226      -3.2789      1.00000
    227      -3.2736      1.00000
    228      -3.2611      1.00000
    229      -3.2467      1.00000
    230      -3.2376      1.00000
    231      -3.2238      1.00000
    232      -3.1777      1.00000
    233      -3.1554      1.00000
    234      -3.1440      1.00000
    235      -3.1139      1.00000
    236      -3.1066      1.00000
    237      -3.0613      1.00000
    238      -3.0491      1.00000
    239      -3.0426      1.00000
    240      -3.0232      1.00000
    241      -2.9885      1.00000
    242      -2.9598      1.00000
    243      -2.9503      1.00000
    244      -2.9428      1.00000
    245      -2.9339      1.00000
    246      -2.9210      1.00000
    247      -2.9140      1.00000
    248      -2.9075      1.00000
    249      -2.8983      1.00000
    250      -2.8756      1.00000
    251      -2.8598      1.00000
    252      -2.8464      1.00000
    253      -2.8375      1.00000
    254      -2.8252      1.00000
    255      -2.8139      1.00000
    256      -2.7873      1.00000
    257      -2.7731      1.00000
    258      -2.7147      1.00000
    259      -2.6855      1.00000
    260      -2.6791      1.00000
    261      -2.6637      1.00000
    262      -2.6604      1.00000
    263      -2.6401      1.00000
    264      -2.6334      1.00000
    265      -2.5803      1.00000
    266      -2.5669      1.00000
    267      -2.4499      1.00000
    268      -2.0301      1.00000
    269      -1.9826      1.00000
    270      -1.9468      1.00000
    271      -1.9232      1.00000
    272      -1.8385      1.00000
    273      -1.8027      1.00000
    274      -1.7946      1.00000
    275      -1.7797      1.00000
    276      -1.7414      1.00000
    277      -1.7242      1.00000
    278      -1.7106      1.00000
    279      -1.6968      1.00000
    280      -1.6877      1.00000
    281      -1.6002      1.00000
    282      -1.5768      1.00000
    283      -1.5472      1.00000
    284      -1.5233      1.00000
    285      -1.4678      1.00000
    286      -1.4413      1.00000
    287      -1.3708      1.00000
    288      -1.3195      1.00000
    289      -1.2908      1.00000
    290      -1.2794      1.00000
    291      -1.2125      1.00000
    292      -1.1930      1.00000
    293      -1.1665      1.00000
    294      -1.1603      1.00000
    295      -1.1448      1.00000
    296      -1.1403      1.00000
    297      -1.1351      1.00000
    298      -1.1022      1.00000
    299      -1.0561      1.00000
    300      -0.9987      1.00000
    301      -0.9855      1.00000
    302      -0.9540      1.00000
    303      -0.8860      1.00000
    304      -0.8707      1.00000
    305      -0.8573      1.00000
    306      -0.8419      1.00000
    307      -0.8311      1.00000
    308      -0.8241      1.00000
    309      -0.8160      1.00000
    310      -0.8040      1.00000
    311      -0.7776      1.00000
    312      -0.7667      1.00000
    313      -0.7465      1.00000
    314      -0.7311      1.00000
    315      -0.7142      1.00000
    316      -0.6944      1.00000
    317      -0.6912      1.00000
    318      -0.6753      1.00000
    319      -0.6629      1.00000
    320      -0.6303      1.00000
    321      -0.6238      1.00000
    322      -0.6003      1.00000
    323      -0.5906      1.00000
    324      -0.5784      1.00000
    325      -0.5646      1.00000
    326      -0.5263      1.00000
    327      -0.4630      1.00000
    328      -0.4476      1.00000
    329      -0.4358      1.00000
    330      -0.4299      1.00000
    331      -0.4187      1.00000
    332      -0.3895      1.00000
    333      -0.3845      1.00000
    334      -0.3451      1.00000
    335      -0.3221      1.00000
    336      -0.2450      1.00000
    337      -0.2215      1.00000
    338      -0.1844      1.00000
    339      -0.1362      1.00000
    340      -0.1285      1.00000
    341      -0.1227      1.00000
    342      -0.1122      1.00000
    343      -0.0898      1.00000
    344      -0.0829      1.00000
    345      -0.0651      1.00000
    346      -0.0492      1.00000
    347      -0.0236      1.00000
    348      -0.0057      1.00000
    349       0.0185      1.00000
    350       0.0499      1.00000
    351       0.0653      1.00000
    352       0.0966      1.00000
    353       0.1057      1.00000
    354       0.1196      1.00000
    355       0.1406      1.00000
    356       0.1544      1.00000
    357       0.1716      1.00000
    358       0.2149      1.00000
    359       0.2265      1.00000
    360       0.2529      1.00000
    361       0.2600      1.00000
    362       0.2644      1.00000
    363       0.2790      1.00000
    364       0.3007      1.00000
    365       0.3113      1.00000
    366       0.3269      1.00000
    367       0.3365      1.00000
    368       0.3506      1.00000
    369       0.3563      1.00000
    370       0.3645      1.00000
    371       0.3805      1.00000
    372       0.3879      1.00000
    373       0.3981      1.00000
    374       0.4054      1.00000
    375       0.4254      1.00000
    376       0.4454      1.00000
    377       0.4706      1.00000
    378       0.4834      1.00000
    379       0.4952      1.00000
    380       0.4984      1.00000
    381       0.5358      1.00000
    382       0.5394      1.00000
    383       0.5571      1.00000
    384       0.5647      1.00000
    385       0.5748      1.00000
    386       0.5881      1.00000
    387       0.6102      1.00000
    388       0.6169      1.00000
    389       0.6541      1.00000
    390       0.6783      1.00000
    391       0.6927      1.00000
    392       0.7133      1.00000
    393       0.7578      1.00000
    394       0.7773      1.00000
    395       0.8008      1.00000
    396       0.8121      1.00000
    397       0.8237      1.00000
    398       0.8421      1.00000
    399       0.8571      1.00000
    400       0.8699      1.00000
    401       0.8796      1.00000
    402       0.8984      1.00000
    403       0.9155      1.00000
    404       0.9251      1.00000
    405       0.9286      1.00000
    406       0.9335      1.00000
    407       0.9517      1.00000
    408       0.9885      1.00000
    409       1.0466      1.00000
    410       1.0641      1.00000
    411       1.1088      1.00000
    412       1.1252      1.00000
    413       1.1561      1.00000
    414       1.1669      1.00000
    415       1.1853      1.00000
    416       1.2000      1.00000
    417       1.2130      1.00000
    418       1.2263      1.00000
    419       1.2437      1.00000
    420       1.2605      1.00000
    421       1.2677      1.00000
    422       1.2880      1.00000
    423       1.3081      1.00000
    424       1.3317      1.00000
    425       1.3520      1.00000
    426       1.3601      1.00000
    427       1.3731      1.00000
    428       1.3768      1.00000
    429       1.3843      1.00000
    430       1.4043      1.00000
    431       1.4137      1.00000
    432       1.4353      1.00000
    433       1.4500      1.00000
    434       1.4603      1.00000
    435       1.4719      1.00000
    436       1.4814      1.00000
    437       1.4934      1.00000
    438       1.4983      1.00000
    439       1.5084      1.00000
    440       1.5317      1.00000
    441       1.5459      1.00000
    442       1.5509      1.00000
    443       1.5819      1.00000
    444       1.6688      1.00000
    445       1.6931      1.00000
    446       1.7219      1.00000
    447       1.7658      1.00000
    448       1.7760      1.00000
    449       1.7817      1.00000
    450       1.7940      1.00000
    451       1.8139      1.00000
    452       1.8403      1.00000
    453       1.8447      1.00000
    454       1.8701      1.00000
    455       1.8783      1.00000
    456       1.8937      1.00000
    457       1.9750      1.00000
    458       1.9918      1.00000
    459       2.0353      1.00000
    460       3.2426      1.00000
    461       4.3184      0.00000
    462       4.3634      0.00000
    463       4.3812      0.00000
    464       4.3964      0.00000
    465       4.4027      0.00000
    466       4.4095      0.00000
    467       4.4123      0.00000
    468       4.4441      0.00000
    469       4.4500      0.00000
    470       4.4589      0.00000
    471       4.4694      0.00000
    472       4.4781      0.00000
    473       4.4836      0.00000
    474       4.4993      0.00000
    475       4.5284      0.00000
    476       4.5343      0.00000
    477       4.5385      0.00000
    478       4.5442      0.00000
    479       4.5471      0.00000
    480       4.5584      0.00000
    481       4.5628      0.00000
    482       4.5700      0.00000
    483       4.5777      0.00000
    484       4.5830      0.00000
    485       4.5920      0.00000
    486       4.5956      0.00000
    487       4.6053      0.00000
    488       4.6147      0.00000
    489       4.6301      0.00000
    490       4.6355      0.00000
    491       4.6397      0.00000
    492       4.6450      0.00000
    493       4.6569      0.00000
    494       4.6694      0.00000
    495       4.6768      0.00000
    496       4.6845      0.00000
    497       4.6896      0.00000
    498       4.6921      0.00000
    499       4.6964      0.00000
    500       4.7012      0.00000
    501       4.7130      0.00000
    502       4.7208      0.00000
    503       4.7229      0.00000
    504       4.7264      0.00000
    505       4.7322      0.00000
    506       4.7448      0.00000
    507       4.7476      0.00000
    508       4.7529      0.00000
    509       4.7595      0.00000
    510       4.7647      0.00000
    511       4.7775      0.00000
    512       4.7798      0.00000
    513       4.8005      0.00000
    514       4.8156      0.00000
    515       4.8199      0.00000
    516       4.8281      0.00000
    517       4.8331      0.00000
    518       4.8420      0.00000
    519       4.8518      0.00000
    520       4.8706      0.00000
    521       4.8771      0.00000
    522       4.8816      0.00000
    523       4.8950      0.00000
    524       4.9055      0.00000
    525       4.9170      0.00000
    526       4.9266      0.00000
    527       4.9359      0.00000
    528       4.9420      0.00000
    529       4.9593      0.00000
    530       4.9700      0.00000
    531       4.9837      0.00000
    532       5.0024      0.00000
    533       5.0057      0.00000
    534       5.0141      0.00000
    535       5.0341      0.00000
    536       5.0465      0.00000
    537       5.0618      0.00000
    538       5.0641      0.00000
    539       5.0698      0.00000
    540       5.0790      0.00000
    541       5.1034      0.00000
    542       5.1136      0.00000
    543       5.1554      0.00000
    544       5.1564      0.00000
    545       5.1891      0.00000
    546       5.1964      0.00000
    547       5.2074      0.00000
    548       5.2165      0.00000
    549       5.2574      0.00000
    550       5.3229      0.00000
    551       5.3454      0.00000
    552       5.3854      0.00000
    553       5.4061      0.00000
    554       5.4344      0.00000
    555       5.4487      0.00000
    556       5.4623      0.00000
    557       5.4818      0.00000
    558       5.5211      0.00000
    559       5.5543      0.00000
    560       5.5928      0.00000
    561       5.6135      0.00000
    562       5.6207      0.00000
    563       5.6287      0.00000
    564       5.6513      0.00000
    565       5.6667      0.00000
    566       5.6729      0.00000
    567       5.6852      0.00000
    568       5.6987      0.00000
    569       5.7045      0.00000
    570       5.7128      0.00000
    571       5.7287      0.00000
    572       5.7492      0.00000
    573       5.7550      0.00000
    574       5.7787      0.00000
    575       5.7918      0.00000
    576       7.8833      0.00000
    577       7.9863      0.00000
    578       8.1885      0.00000
    579       8.3623      0.00000
    580       8.9960      0.00000
    581       9.0317      0.00000
    582       9.0808      0.00000
    583       9.1162      0.00000
    584       9.6969      0.00000
    585       9.7340      0.00000
    586      10.2784      0.00000
    587      10.3093      0.00000
    588      10.4549      0.00000
    589      10.4781      0.00000
    590      10.5132      0.00000
    591      10.5740      0.00000
    592      10.6676      0.00000
    593      10.6898      0.00000
    594      10.6973      0.00000
    595      10.7215      0.00000
    596      10.7300      0.00000
    597      10.7442      0.00000
    598      10.7670      0.00000
    599      10.7870      0.00000
    600      10.9249      0.00000
    601      10.9604      0.00000
    602      10.9994      0.00000
    603      11.0241      0.00000
    604      11.0282      0.00000
    605      11.0488      0.00000
    606      11.0767      0.00000
    607      11.1073      0.00000
    608      11.1299      0.00000
    609      11.1635      0.00000
    610      11.2151      0.00000
    611      11.2303      0.00000
    612      11.2599      0.00000
    613      11.2723      0.00000
    614      11.2942      0.00000
    615      11.3033      0.00000
    616      11.3865      0.00000
    617      11.4052      0.00000
    618      11.4328      0.00000
    619      11.4650      0.00000
    620      11.4821      0.00000
    621      11.5124      0.00000
    622      11.5318      0.00000
    623      11.5531      0.00000
    624      11.5728      0.00000
    625      11.5911      0.00000
    626      11.6276      0.00000
    627      11.6460      0.00000
    628      11.6644      0.00000
    629      11.7171      0.00000
    630      11.7560      0.00000
    631      11.7963      0.00000
    632      11.8343      0.00000
    633      11.8450      0.00000
    634      11.8632      0.00000
    635      11.8674      0.00000
    636      11.8948      0.00000
    637      11.9899      0.00000
    638      12.0083      0.00000
    639      12.0104      0.00000
    640      12.0352      0.00000
    641      12.0532      0.00000
    642      12.0763      0.00000
    643      12.0985      0.00000
    644      12.1250      0.00000
    645      12.1741      0.00000
    646      12.1864      0.00000
    647      12.2077      0.00000
    648      12.2229      0.00000
    649      12.2606      0.00000
    650      12.2650      0.00000
    651      12.2800      0.00000
    652      12.2927      0.00000
    653      12.3045      0.00000
    654      12.3322      0.00000
    655      12.3700      0.00000
    656      12.4018      0.00000
    657      12.4162      0.00000
    658      12.4501      0.00000
    659      12.4734      0.00000
    660      12.4883      0.00000
    661      12.4954      0.00000
    662      12.5219      0.00000
    663      12.5323      0.00000
    664      12.5852      0.00000
    665      12.6428      0.00000
    666      12.6685      0.00000
    667      12.7125      0.00000
    668      12.7900      0.00000
    669      12.8332      0.00000
    670      12.8753      0.00000
    671      12.8939      0.00000
    672      12.9157      0.00000
    673      12.9392      0.00000
    674      12.9502      0.00000
    675      12.9788      0.00000
    676      13.0041      0.00000
    677      13.0551      0.00000
    678      13.0706      0.00000
    679      13.2199      0.00000
    680      13.2512      0.00000
    681      13.2754      0.00000
    682      13.2982      0.00000
    683      13.3492      0.00000
    684      13.3798      0.00000
    685      13.3953      0.00000
    686      13.4093      0.00000
    687      13.4213      0.00000
    688      13.4493      0.00000
    689      13.4689      0.00000
    690      13.4893      0.00000
    691      13.5289      0.00000
    692      13.5407      0.00000
    693      13.6332      0.00000
    694      13.6684      0.00000
    695      13.7024      0.00000
    696      13.7729      0.00000

 k-point     4 :       0.3333    0.0000    0.3333
  band No.  band energies     occupation 
      1     -50.5759      1.00000
      2     -50.5705      1.00000
      3     -50.5427      1.00000
      4     -50.5232      1.00000
      5     -50.5029      1.00000
      6     -50.4872      1.00000
      7     -50.4770      1.00000
      8     -50.4760      1.00000
      9     -50.4729      1.00000
     10     -50.4725      1.00000
     11     -50.4640      1.00000
     12     -50.4603      1.00000
     13     -50.4587      1.00000
     14     -50.4530      1.00000
     15     -50.4484      1.00000
     16     -50.4437      1.00000
     17     -50.4420      1.00000
     18     -50.4351      1.00000
     19     -50.4324      1.00000
     20     -50.4305      1.00000
     21     -50.4176      1.00000
     22     -50.4110      1.00000
     23     -50.4103      1.00000
     24     -50.4084      1.00000
     25     -50.3954      1.00000
     26     -50.3899      1.00000
     27     -50.3870      1.00000
     28     -50.3849      1.00000
     29     -50.3810      1.00000
     30     -50.3810      1.00000
     31     -50.3723      1.00000
     32     -50.3710      1.00000
     33     -50.3696      1.00000
     34     -50.3685      1.00000
     35     -50.3617      1.00000
     36     -50.3593      1.00000
     37     -50.3540      1.00000
     38     -50.3485      1.00000
     39     -50.3485      1.00000
     40     -50.3482      1.00000
     41     -50.3434      1.00000
     42     -50.3400      1.00000
     43     -50.3280      1.00000
     44     -50.3231      1.00000
     45     -50.3164      1.00000
     46     -50.3099      1.00000
     47     -50.3039      1.00000
     48     -50.3036      1.00000
     49     -50.3021      1.00000
     50     -50.2977      1.00000
     51     -50.2956      1.00000
     52     -50.2924      1.00000
     53     -50.2877      1.00000
     54     -50.2837      1.00000
     55     -50.2837      1.00000
     56     -50.2738      1.00000
     57     -50.2731      1.00000
     58     -50.2723      1.00000
     59     -50.2673      1.00000
     60     -50.2665      1.00000
     61     -50.2451      1.00000
     62     -50.2398      1.00000
     63     -50.2340      1.00000
     64     -50.2323      1.00000
     65     -50.2306      1.00000
     66     -50.2240      1.00000
     67     -50.2113      1.00000
     68     -50.1825      1.00000
     69     -50.1747      1.00000
     70     -46.8880      1.00000
     71     -46.4364      1.00000
     72     -46.3369      1.00000
     73     -18.9453      1.00000
     74     -18.7826      1.00000
     75     -18.7393      1.00000
     76     -18.4202      1.00000
     77     -18.3248      1.00000
     78     -18.2696      1.00000
     79     -18.2362      1.00000
     80     -18.2264      1.00000
     81     -18.1968      1.00000
     82     -18.1808      1.00000
     83     -18.1700      1.00000
     84     -18.1511      1.00000
     85     -18.1379      1.00000
     86     -18.1130      1.00000
     87     -18.0906      1.00000
     88     -18.0603      1.00000
     89     -18.0396      1.00000
     90     -18.0193      1.00000
     91     -18.0130      1.00000
     92     -18.0051      1.00000
     93     -17.9991      1.00000
     94     -17.9877      1.00000
     95     -17.9772      1.00000
     96     -17.9471      1.00000
     97     -17.9296      1.00000
     98     -17.9244      1.00000
     99     -17.8720      1.00000
    100     -16.0581      1.00000
    101     -15.9741      1.00000
    102     -15.9269      1.00000
    103     -15.9079      1.00000
    104     -15.9007      1.00000
    105     -15.8949      1.00000
    106     -15.8791      1.00000
    107     -15.8679      1.00000
    108     -15.8576      1.00000
    109     -15.8433      1.00000
    110     -15.8338      1.00000
    111     -15.8209      1.00000
    112     -15.8166      1.00000
    113     -15.8063      1.00000
    114     -15.7947      1.00000
    115     -15.7930      1.00000
    116     -15.7731      1.00000
    117     -15.7625      1.00000
    118     -15.7582      1.00000
    119     -15.7474      1.00000
    120     -15.7392      1.00000
    121     -15.7318      1.00000
    122     -15.7266      1.00000
    123     -15.6983      1.00000
    124     -15.6777      1.00000
    125     -15.6677      1.00000
    126     -15.6555      1.00000
    127     -15.6170      1.00000
    128     -15.6071      1.00000
    129     -15.5868      1.00000
    130     -15.5755      1.00000
    131     -15.5722      1.00000
    132     -15.5582      1.00000
    133     -15.5530      1.00000
    134     -15.5416      1.00000
    135     -15.5362      1.00000
    136     -15.5215      1.00000
    137     -15.5175      1.00000
    138     -15.5100      1.00000
    139     -15.5043      1.00000
    140     -15.5008      1.00000
    141     -15.4982      1.00000
    142     -15.4942      1.00000
    143     -15.4819      1.00000
    144     -15.4765      1.00000
    145     -15.4677      1.00000
    146     -15.4651      1.00000
    147     -15.4435      1.00000
    148     -15.4380      1.00000
    149     -15.4230      1.00000
    150     -15.4188      1.00000
    151     -15.4115      1.00000
    152     -15.3966      1.00000
    153     -15.3839      1.00000
    154     -15.3819      1.00000
    155     -15.3733      1.00000
    156     -15.3649      1.00000
    157     -15.3596      1.00000
    158     -15.3565      1.00000
    159     -15.3534      1.00000
    160     -15.3473      1.00000
    161     -15.3386      1.00000
    162     -15.3345      1.00000
    163     -15.3272      1.00000
    164     -15.3220      1.00000
    165     -15.3170      1.00000
    166     -15.3090      1.00000
    167     -15.3036      1.00000
    168     -15.2876      1.00000
    169     -15.2518      1.00000
    170     -15.2292      1.00000
    171     -15.1944      1.00000
    172      -6.0267      1.00000
    173      -5.8838      1.00000
    174      -5.8387      1.00000
    175      -5.8136      1.00000
    176      -5.7535      1.00000
    177      -5.7150      1.00000
    178      -5.6844      1.00000
    179      -5.6558      1.00000
    180      -5.5856      1.00000
    181      -5.5498      1.00000
    182      -5.5480      1.00000
    183      -5.5174      1.00000
    184      -5.4805      1.00000
    185      -5.4692      1.00000
    186      -5.4195      1.00000
    187      -5.4144      1.00000
    188      -5.3826      1.00000
    189      -5.3437      1.00000
    190      -5.3246      1.00000
    191      -5.3190      1.00000
    192      -5.2917      1.00000
    193      -5.2551      1.00000
    194      -5.2503      1.00000
    195      -5.1765      1.00000
    196      -4.1858      1.00000
    197      -4.0287      1.00000
    198      -3.9735      1.00000
    199      -3.9489      1.00000
    200      -3.9181      1.00000
    201      -3.8412      1.00000
    202      -3.8233      1.00000
    203      -3.7902      1.00000
    204      -3.7340      1.00000
    205      -3.7261      1.00000
    206      -3.6323      1.00000
    207      -3.6281      1.00000
    208      -3.5930      1.00000
    209      -3.5740      1.00000
    210      -3.5173      1.00000
    211      -3.5065      1.00000
    212      -3.4939      1.00000
    213      -3.4808      1.00000
    214      -3.4691      1.00000
    215      -3.4576      1.00000
    216      -3.4514      1.00000
    217      -3.4277      1.00000
    218      -3.4008      1.00000
    219      -3.3701      1.00000
    220      -3.3578      1.00000
    221      -3.3461      1.00000
    222      -3.3293      1.00000
    223      -3.3162      1.00000
    224      -3.2917      1.00000
    225      -3.2769      1.00000
    226      -3.2572      1.00000
    227      -3.2489      1.00000
    228      -3.2232      1.00000
    229      -3.2134      1.00000
    230      -3.1993      1.00000
    231      -3.1869      1.00000
    232      -3.1751      1.00000
    233      -3.1586      1.00000
    234      -3.1515      1.00000
    235      -3.1362      1.00000
    236      -3.1316      1.00000
    237      -3.1223      1.00000
    238      -3.0980      1.00000
    239      -3.0781      1.00000
    240      -3.0643      1.00000
    241      -3.0582      1.00000
    242      -3.0411      1.00000
    243      -3.0228      1.00000
    244      -2.9911      1.00000
    245      -2.9748      1.00000
    246      -2.9711      1.00000
    247      -2.9487      1.00000
    248      -2.9372      1.00000
    249      -2.9015      1.00000
    250      -2.8777      1.00000
    251      -2.8692      1.00000
    252      -2.8529      1.00000
    253      -2.8105      1.00000
    254      -2.8078      1.00000
    255      -2.7934      1.00000
    256      -2.7773      1.00000
    257      -2.7547      1.00000
    258      -2.7443      1.00000
    259      -2.7312      1.00000
    260      -2.7079      1.00000
    261      -2.6841      1.00000
    262      -2.6772      1.00000
    263      -2.6629      1.00000
    264      -2.6214      1.00000
    265      -2.5987      1.00000
    266      -2.5762      1.00000
    267      -2.4815      1.00000
    268      -1.9993      1.00000
    269      -1.9413      1.00000
    270      -1.9154      1.00000
    271      -1.8844      1.00000
    272      -1.8333      1.00000
    273      -1.8096      1.00000
    274      -1.8029      1.00000
    275      -1.7943      1.00000
    276      -1.7818      1.00000
    277      -1.7464      1.00000
    278      -1.7125      1.00000
    279      -1.6927      1.00000
    280      -1.6569      1.00000
    281      -1.6152      1.00000
    282      -1.5434      1.00000
    283      -1.5299      1.00000
    284      -1.4918      1.00000
    285      -1.4664      1.00000
    286      -1.4041      1.00000
    287      -1.3352      1.00000
    288      -1.3177      1.00000
    289      -1.2628      1.00000
    290      -1.2044      1.00000
    291      -1.1724      1.00000
    292      -1.1524      1.00000
    293      -1.1413      1.00000
    294      -1.0951      1.00000
    295      -1.0716      1.00000
    296      -1.0240      1.00000
    297      -1.0047      1.00000
    298      -0.9913      1.00000
    299      -0.9688      1.00000
    300      -0.9539      1.00000
    301      -0.9360      1.00000
    302      -0.9249      1.00000
    303      -0.9018      1.00000
    304      -0.8935      1.00000
    305      -0.8700      1.00000
    306      -0.8599      1.00000
    307      -0.8368      1.00000
    308      -0.8067      1.00000
    309      -0.7916      1.00000
    310      -0.7861      1.00000
    311      -0.7561      1.00000
    312      -0.7352      1.00000
    313      -0.7227      1.00000
    314      -0.7081      1.00000
    315      -0.6997      1.00000
    316      -0.6922      1.00000
    317      -0.6819      1.00000
    318      -0.6585      1.00000
    319      -0.6302      1.00000
    320      -0.6170      1.00000
    321      -0.6049      1.00000
    322      -0.5873      1.00000
    323      -0.5788      1.00000
    324      -0.5594      1.00000
    325      -0.5525      1.00000
    326      -0.5330      1.00000
    327      -0.5108      1.00000
    328      -0.4996      1.00000
    329      -0.4642      1.00000
    330      -0.4575      1.00000
    331      -0.4278      1.00000
    332      -0.4157      1.00000
    333      -0.4001      1.00000
    334      -0.3837      1.00000
    335      -0.3437      1.00000
    336      -0.3334      1.00000
    337      -0.2322      1.00000
    338      -0.2106      1.00000
    339      -0.1965      1.00000
    340      -0.1850      1.00000
    341      -0.1669      1.00000
    342      -0.1494      1.00000
    343      -0.0927      1.00000
    344      -0.0634      1.00000
    345      -0.0530      1.00000
    346      -0.0456      1.00000
    347      -0.0310      1.00000
    348      -0.0052      1.00000
    349      -0.0006      1.00000
    350       0.0072      1.00000
    351       0.0216      1.00000
    352       0.0287      1.00000
    353       0.0552      1.00000
    354       0.0676      1.00000
    355       0.0778      1.00000
    356       0.0882      1.00000
    357       0.0957      1.00000
    358       0.1264      1.00000
    359       0.1408      1.00000
    360       0.1435      1.00000
    361       0.1573      1.00000
    362       0.1707      1.00000
    363       0.2161      1.00000
    364       0.2588      1.00000
    365       0.2713      1.00000
    366       0.2894      1.00000
    367       0.2998      1.00000
    368       0.3204      1.00000
    369       0.3342      1.00000
    370       0.3413      1.00000
    371       0.3459      1.00000
    372       0.3508      1.00000
    373       0.3636      1.00000
    374       0.3830      1.00000
    375       0.4032      1.00000
    376       0.4149      1.00000
    377       0.4293      1.00000
    378       0.4489      1.00000
    379       0.4640      1.00000
    380       0.4890      1.00000
    381       0.5038      1.00000
    382       0.5137      1.00000
    383       0.5405      1.00000
    384       0.5527      1.00000
    385       0.5676      1.00000
    386       0.6245      1.00000
    387       0.6383      1.00000
    388       0.7029      1.00000
    389       0.7345      1.00000
    390       0.7714      1.00000
    391       0.7873      1.00000
    392       0.8018      1.00000
    393       0.8162      1.00000
    394       0.8281      1.00000
    395       0.8533      1.00000
    396       0.8703      1.00000
    397       0.8874      1.00000
    398       0.8926      1.00000
    399       0.9157      1.00000
    400       0.9314      1.00000
    401       0.9362      1.00000
    402       0.9756      1.00000
    403       0.9890      1.00000
    404       1.0008      1.00000
    405       1.0126      1.00000
    406       1.0217      1.00000
    407       1.0424      1.00000
    408       1.0725      1.00000
    409       1.0818      1.00000
    410       1.1070      1.00000
    411       1.1229      1.00000
    412       1.1531      1.00000
    413       1.1706      1.00000
    414       1.1945      1.00000
    415       1.2006      1.00000
    416       1.2148      1.00000
    417       1.2256      1.00000
    418       1.2355      1.00000
    419       1.2462      1.00000
    420       1.2527      1.00000
    421       1.2734      1.00000
    422       1.2846      1.00000
    423       1.3039      1.00000
    424       1.3246      1.00000
    425       1.3411      1.00000
    426       1.3530      1.00000
    427       1.3650      1.00000
    428       1.3781      1.00000
    429       1.3868      1.00000
    430       1.4000      1.00000
    431       1.4031      1.00000
    432       1.4110      1.00000
    433       1.4314      1.00000
    434       1.4337      1.00000
    435       1.4413      1.00000
    436       1.4600      1.00000
    437       1.4741      1.00000
    438       1.4947      1.00000
    439       1.5194      1.00000
    440       1.5394      1.00000
    441       1.5472      1.00000
    442       1.5692      1.00000
    443       1.5953      1.00000
    444       1.6281      1.00000
    445       1.6455      1.00000
    446       1.6642      1.00000
    447       1.6724      1.00000
    448       1.6761      1.00000
    449       1.6871      1.00000
    450       1.7349      1.00000
    451       1.7588      1.00000
    452       1.7985      1.00000
    453       1.8192      1.00000
    454       1.8508      1.00000
    455       1.8544      1.00000
    456       1.9476      1.00000
    457       2.0097      1.00000
    458       2.0198      1.00000
    459       2.0765      1.00000
    460       3.2431      1.00000
    461       4.3220      0.00000
    462       4.3609      0.00000
    463       4.3897      0.00000
    464       4.4008      0.00000
    465       4.4049      0.00000
    466       4.4169      0.00000
    467       4.4193      0.00000
    468       4.4526      0.00000
    469       4.4572      0.00000
    470       4.4613      0.00000
    471       4.4725      0.00000
    472       4.4831      0.00000
    473       4.4937      0.00000
    474       4.4979      0.00000
    475       4.5110      0.00000
    476       4.5173      0.00000
    477       4.5260      0.00000
    478       4.5364      0.00000
    479       4.5437      0.00000
    480       4.5575      0.00000
    481       4.5658      0.00000
    482       4.5734      0.00000
    483       4.5836      0.00000
    484       4.5870      0.00000
    485       4.5952      0.00000
    486       4.6010      0.00000
    487       4.6171      0.00000
    488       4.6215      0.00000
    489       4.6252      0.00000
    490       4.6325      0.00000
    491       4.6409      0.00000
    492       4.6497      0.00000
    493       4.6632      0.00000
    494       4.6677      0.00000
    495       4.6720      0.00000
    496       4.6836      0.00000
    497       4.6907      0.00000
    498       4.6939      0.00000
    499       4.6998      0.00000
    500       4.7105      0.00000
    501       4.7177      0.00000
    502       4.7244      0.00000
    503       4.7321      0.00000
    504       4.7352      0.00000
    505       4.7403      0.00000
    506       4.7519      0.00000
    507       4.7589      0.00000
    508       4.7671      0.00000
    509       4.7727      0.00000
    510       4.7795      0.00000
    511       4.7840      0.00000
    512       4.7956      0.00000
    513       4.8018      0.00000
    514       4.8118      0.00000
    515       4.8141      0.00000
    516       4.8256      0.00000
    517       4.8340      0.00000
    518       4.8444      0.00000
    519       4.8500      0.00000
    520       4.8529      0.00000
    521       4.8670      0.00000
    522       4.8821      0.00000
    523       4.8838      0.00000
    524       4.8914      0.00000
    525       4.9140      0.00000
    526       4.9231      0.00000
    527       4.9269      0.00000
    528       4.9383      0.00000
    529       4.9481      0.00000
    530       4.9507      0.00000
    531       4.9594      0.00000
    532       4.9736      0.00000
    533       4.9862      0.00000
    534       4.9920      0.00000
    535       5.0057      0.00000
    536       5.0206      0.00000
    537       5.0357      0.00000
    538       5.0409      0.00000
    539       5.0682      0.00000
    540       5.0914      0.00000
    541       5.0962      0.00000
    542       5.1074      0.00000
    543       5.1541      0.00000
    544       5.1621      0.00000
    545       5.1758      0.00000
    546       5.2031      0.00000
    547       5.2143      0.00000
    548       5.2211      0.00000
    549       5.2486      0.00000
    550       5.2986      0.00000
    551       5.3131      0.00000
    552       5.3594      0.00000
    553       5.4462      0.00000
    554       5.4638      0.00000
    555       5.4812      0.00000
    556       5.4991      0.00000
    557       5.5110      0.00000
    558       5.5323      0.00000
    559       5.5703      0.00000
    560       5.5891      0.00000
    561       5.5985      0.00000
    562       5.6179      0.00000
    563       5.6209      0.00000
    564       5.6305      0.00000
    565       5.6437      0.00000
    566       5.6680      0.00000
    567       5.6766      0.00000
    568       5.6988      0.00000
    569       5.7153      0.00000
    570       5.7259      0.00000
    571       5.7396      0.00000
    572       5.7546      0.00000
    573       5.7633      0.00000
    574       5.7849      0.00000
    575       5.7970      0.00000
    576       7.8821      0.00000
    577       7.9896      0.00000
    578       8.2679      0.00000
    579       8.5961      0.00000
    580       9.0947      0.00000
    581       9.2322      0.00000
    582       9.3022      0.00000
    583       9.3336      0.00000
    584       9.4294      0.00000
    585       9.8678      0.00000
    586       9.9142      0.00000
    587       9.9384      0.00000
    588       9.9497      0.00000
    589       9.9659      0.00000
    590      10.3858      0.00000
    591      10.4134      0.00000
    592      10.5764      0.00000
    593      10.6266      0.00000
    594      10.7233      0.00000
    595      10.8016      0.00000
    596      10.8343      0.00000
    597      10.8517      0.00000
    598      10.8661      0.00000
    599      10.8840      0.00000
    600      10.9111      0.00000
    601      10.9529      0.00000
    602      10.9633      0.00000
    603      11.0322      0.00000
    604      11.1466      0.00000
    605      11.1900      0.00000
    606      11.2110      0.00000
    607      11.2357      0.00000
    608      11.2543      0.00000
    609      11.2757      0.00000
    610      11.2830      0.00000
    611      11.3143      0.00000
    612      11.3239      0.00000
    613      11.3498      0.00000
    614      11.3560      0.00000
    615      11.3916      0.00000
    616      11.3982      0.00000
    617      11.4117      0.00000
    618      11.4480      0.00000
    619      11.4642      0.00000
    620      11.5064      0.00000
    621      11.5109      0.00000
    622      11.5457      0.00000
    623      11.6046      0.00000
    624      11.6213      0.00000
    625      11.6486      0.00000
    626      11.6559      0.00000
    627      11.6705      0.00000
    628      11.6768      0.00000
    629      11.7163      0.00000
    630      11.7727      0.00000
    631      11.7911      0.00000
    632      11.7997      0.00000
    633      11.8343      0.00000
    634      11.8863      0.00000
    635      11.9055      0.00000
    636      11.9262      0.00000
    637      11.9410      0.00000
    638      11.9993      0.00000
    639      12.0146      0.00000
    640      12.0367      0.00000
    641      12.0491      0.00000
    642      12.0700      0.00000
    643      12.0907      0.00000
    644      12.1024      0.00000
    645      12.1164      0.00000
    646      12.1384      0.00000
    647      12.1820      0.00000
    648      12.2008      0.00000
    649      12.2128      0.00000
    650      12.2486      0.00000
    651      12.2576      0.00000
    652      12.2825      0.00000
    653      12.3059      0.00000
    654      12.3410      0.00000
    655      12.3517      0.00000
    656      12.3830      0.00000
    657      12.4076      0.00000
    658      12.4260      0.00000
    659      12.4563      0.00000
    660      12.4711      0.00000
    661      12.4907      0.00000
    662      12.5056      0.00000
    663      12.5985      0.00000
    664      12.6259      0.00000
    665      12.6563      0.00000
    666      12.6701      0.00000
    667      12.6924      0.00000
    668      12.7350      0.00000
    669      12.7870      0.00000
    670      12.8130      0.00000
    671      12.8288      0.00000
    672      12.8416      0.00000
    673      13.0049      0.00000
    674      13.0322      0.00000
    675      13.0613      0.00000
    676      13.1096      0.00000
    677      13.1270      0.00000
    678      13.1410      0.00000
    679      13.1594      0.00000
    680      13.1740      0.00000
    681      13.1884      0.00000
    682      13.2354      0.00000
    683      13.2544      0.00000
    684      13.3007      0.00000
    685      13.3395      0.00000
    686      13.4514      0.00000
    687      13.4956      0.00000
    688      13.5397      0.00000
    689      13.5679      0.00000
    690      13.5908      0.00000
    691      13.6068      0.00000
    692      13.6295      0.00000
    693      13.6459      0.00000
    694      13.6706      0.00000
    695      13.7186      0.00000
    696      13.7603      0.00000

 k-point     5 :      -0.3333    0.0000    0.3333
  band No.  band energies     occupation 
      1     -50.5759      1.00000
      2     -50.5705      1.00000
      3     -50.5427      1.00000
      4     -50.5232      1.00000
      5     -50.5029      1.00000
      6     -50.4872      1.00000
      7     -50.4770      1.00000
      8     -50.4760      1.00000
      9     -50.4729      1.00000
     10     -50.4725      1.00000
     11     -50.4640      1.00000
     12     -50.4603      1.00000
     13     -50.4587      1.00000
     14     -50.4530      1.00000
     15     -50.4484      1.00000
     16     -50.4437      1.00000
     17     -50.4420      1.00000
     18     -50.4351      1.00000
     19     -50.4324      1.00000
     20     -50.4305      1.00000
     21     -50.4176      1.00000
     22     -50.4110      1.00000
     23     -50.4103      1.00000
     24     -50.4084      1.00000
     25     -50.3954      1.00000
     26     -50.3899      1.00000
     27     -50.3870      1.00000
     28     -50.3849      1.00000
     29     -50.3810      1.00000
     30     -50.3810      1.00000
     31     -50.3723      1.00000
     32     -50.3710      1.00000
     33     -50.3696      1.00000
     34     -50.3685      1.00000
     35     -50.3617      1.00000
     36     -50.3593      1.00000
     37     -50.3540      1.00000
     38     -50.3485      1.00000
     39     -50.3485      1.00000
     40     -50.3482      1.00000
     41     -50.3434      1.00000
     42     -50.3400      1.00000
     43     -50.3280      1.00000
     44     -50.3231      1.00000
     45     -50.3164      1.00000
     46     -50.3099      1.00000
     47     -50.3039      1.00000
     48     -50.3036      1.00000
     49     -50.3021      1.00000
     50     -50.2977      1.00000
     51     -50.2956      1.00000
     52     -50.2924      1.00000
     53     -50.2877      1.00000
     54     -50.2837      1.00000
     55     -50.2837      1.00000
     56     -50.2738      1.00000
     57     -50.2731      1.00000
     58     -50.2723      1.00000
     59     -50.2673      1.00000
     60     -50.2665      1.00000
     61     -50.2451      1.00000
     62     -50.2398      1.00000
     63     -50.2340      1.00000
     64     -50.2323      1.00000
     65     -50.2306      1.00000
     66     -50.2240      1.00000
     67     -50.2113      1.00000
     68     -50.1825      1.00000
     69     -50.1747      1.00000
     70     -46.8880      1.00000
     71     -46.4364      1.00000
     72     -46.3369      1.00000
     73     -18.9454      1.00000
     74     -18.7825      1.00000
     75     -18.7393      1.00000
     76     -18.4168      1.00000
     77     -18.3292      1.00000
     78     -18.2702      1.00000
     79     -18.2398      1.00000
     80     -18.2262      1.00000
     81     -18.1955      1.00000
     82     -18.1766      1.00000
     83     -18.1720      1.00000
     84     -18.1505      1.00000
     85     -18.1357      1.00000
     86     -18.1143      1.00000
     87     -18.0919      1.00000
     88     -18.0571      1.00000
     89     -18.0409      1.00000
     90     -18.0214      1.00000
     91     -18.0121      1.00000
     92     -18.0049      1.00000
     93     -17.9986      1.00000
     94     -17.9851      1.00000
     95     -17.9775      1.00000
     96     -17.9490      1.00000
     97     -17.9298      1.00000
     98     -17.9247      1.00000
     99     -17.8719      1.00000
    100     -16.0586      1.00000
    101     -15.9680      1.00000
    102     -15.9223      1.00000
    103     -15.9192      1.00000
    104     -15.9059      1.00000
    105     -15.8947      1.00000
    106     -15.8819      1.00000
    107     -15.8684      1.00000
    108     -15.8480      1.00000
    109     -15.8414      1.00000
    110     -15.8360      1.00000
    111     -15.8239      1.00000
    112     -15.8161      1.00000
    113     -15.8037      1.00000
    114     -15.7946      1.00000
    115     -15.7881      1.00000
    116     -15.7782      1.00000
    117     -15.7698      1.00000
    118     -15.7638      1.00000
    119     -15.7482      1.00000
    120     -15.7429      1.00000
    121     -15.7211      1.00000
    122     -15.7176      1.00000
    123     -15.6872      1.00000
    124     -15.6821      1.00000
    125     -15.6700      1.00000
    126     -15.6588      1.00000
    127     -15.6208      1.00000
    128     -15.6033      1.00000
    129     -15.5853      1.00000
    130     -15.5785      1.00000
    131     -15.5709      1.00000
    132     -15.5618      1.00000
    133     -15.5558      1.00000
    134     -15.5430      1.00000
    135     -15.5366      1.00000
    136     -15.5191      1.00000
    137     -15.5146      1.00000
    138     -15.5073      1.00000
    139     -15.5053      1.00000
    140     -15.4996      1.00000
    141     -15.4952      1.00000
    142     -15.4923      1.00000
    143     -15.4898      1.00000
    144     -15.4827      1.00000
    145     -15.4705      1.00000
    146     -15.4617      1.00000
    147     -15.4411      1.00000
    148     -15.4342      1.00000
    149     -15.4241      1.00000
    150     -15.4173      1.00000
    151     -15.4140      1.00000
    152     -15.3972      1.00000
    153     -15.3844      1.00000
    154     -15.3786      1.00000
    155     -15.3731      1.00000
    156     -15.3663      1.00000
    157     -15.3617      1.00000
    158     -15.3581      1.00000
    159     -15.3507      1.00000
    160     -15.3443      1.00000
    161     -15.3386      1.00000
    162     -15.3380      1.00000
    163     -15.3254      1.00000
    164     -15.3202      1.00000
    165     -15.3153      1.00000
    166     -15.3102      1.00000
    167     -15.3070      1.00000
    168     -15.2871      1.00000
    169     -15.2519      1.00000
    170     -15.2292      1.00000
    171     -15.1944      1.00000
    172      -6.0245      1.00000
    173      -5.8923      1.00000
    174      -5.8364      1.00000
    175      -5.8104      1.00000
    176      -5.7558      1.00000
    177      -5.7070      1.00000
    178      -5.6862      1.00000
    179      -5.6648      1.00000
    180      -5.5731      1.00000
    181      -5.5617      1.00000
    182      -5.5419      1.00000
    183      -5.5099      1.00000
    184      -5.4857      1.00000
    185      -5.4586      1.00000
    186      -5.4349      1.00000
    187      -5.4162      1.00000
    188      -5.3795      1.00000
    189      -5.3527      1.00000
    190      -5.3185      1.00000
    191      -5.3133      1.00000
    192      -5.2959      1.00000
    193      -5.2564      1.00000
    194      -5.2395      1.00000
    195      -5.1850      1.00000
    196      -4.1817      1.00000
    197      -4.0273      1.00000
    198      -3.9701      1.00000
    199      -3.9499      1.00000
    200      -3.9215      1.00000
    201      -3.8572      1.00000
    202      -3.8199      1.00000
    203      -3.7775      1.00000
    204      -3.7405      1.00000
    205      -3.7288      1.00000
    206      -3.6350      1.00000
    207      -3.6229      1.00000
    208      -3.5949      1.00000
    209      -3.5752      1.00000
    210      -3.5351      1.00000
    211      -3.4953      1.00000
    212      -3.4888      1.00000
    213      -3.4760      1.00000
    214      -3.4622      1.00000
    215      -3.4544      1.00000
    216      -3.4435      1.00000
    217      -3.4226      1.00000
    218      -3.4073      1.00000
    219      -3.3750      1.00000
    220      -3.3607      1.00000
    221      -3.3422      1.00000
    222      -3.3230      1.00000
    223      -3.3132      1.00000
    224      -3.2944      1.00000
    225      -3.2763      1.00000
    226      -3.2576      1.00000
    227      -3.2455      1.00000
    228      -3.2235      1.00000
    229      -3.2076      1.00000
    230      -3.1985      1.00000
    231      -3.1830      1.00000
    232      -3.1779      1.00000
    233      -3.1664      1.00000
    234      -3.1536      1.00000
    235      -3.1376      1.00000
    236      -3.1338      1.00000
    237      -3.1203      1.00000
    238      -3.1135      1.00000
    239      -3.0950      1.00000
    240      -3.0774      1.00000
    241      -3.0463      1.00000
    242      -3.0391      1.00000
    243      -3.0258      1.00000
    244      -2.9908      1.00000
    245      -2.9787      1.00000
    246      -2.9710      1.00000
    247      -2.9586      1.00000
    248      -2.9361      1.00000
    249      -2.9102      1.00000
    250      -2.8754      1.00000
    251      -2.8670      1.00000
    252      -2.8316      1.00000
    253      -2.8175      1.00000
    254      -2.7928      1.00000
    255      -2.7800      1.00000
    256      -2.7731      1.00000
    257      -2.7692      1.00000
    258      -2.7382      1.00000
    259      -2.7273      1.00000
    260      -2.7001      1.00000
    261      -2.6826      1.00000
    262      -2.6671      1.00000
    263      -2.6424      1.00000
    264      -2.6346      1.00000
    265      -2.6194      1.00000
    266      -2.5995      1.00000
    267      -2.4690      1.00000
    268      -1.9998      1.00000
    269      -1.9450      1.00000
    270      -1.9162      1.00000
    271      -1.8854      1.00000
    272      -1.8297      1.00000
    273      -1.8093      1.00000
    274      -1.8004      1.00000
    275      -1.7871      1.00000
    276      -1.7820      1.00000
    277      -1.7490      1.00000
    278      -1.7096      1.00000
    279      -1.6912      1.00000
    280      -1.6723      1.00000
    281      -1.6102      1.00000
    282      -1.5301      1.00000
    283      -1.5184      1.00000
    284      -1.4951      1.00000
    285      -1.4811      1.00000
    286      -1.3995      1.00000
    287      -1.3417      1.00000
    288      -1.3301      1.00000
    289      -1.2589      1.00000
    290      -1.2287      1.00000
    291      -1.1657      1.00000
    292      -1.1409      1.00000
    293      -1.1282      1.00000
    294      -1.1101      1.00000
    295      -1.0751      1.00000
    296      -1.0361      1.00000
    297      -1.0108      1.00000
    298      -0.9904      1.00000
    299      -0.9792      1.00000
    300      -0.9604      1.00000
    301      -0.9298      1.00000
    302      -0.9111      1.00000
    303      -0.8944      1.00000
    304      -0.8774      1.00000
    305      -0.8689      1.00000
    306      -0.8432      1.00000
    307      -0.8322      1.00000
    308      -0.8174      1.00000
    309      -0.8033      1.00000
    310      -0.7906      1.00000
    311      -0.7726      1.00000
    312      -0.7424      1.00000
    313      -0.7287      1.00000
    314      -0.6989      1.00000
    315      -0.6865      1.00000
    316      -0.6783      1.00000
    317      -0.6621      1.00000
    318      -0.6465      1.00000
    319      -0.6422      1.00000
    320      -0.6146      1.00000
    321      -0.5981      1.00000
    322      -0.5861      1.00000
    323      -0.5740      1.00000
    324      -0.5605      1.00000
    325      -0.5583      1.00000
    326      -0.5391      1.00000
    327      -0.5128      1.00000
    328      -0.4947      1.00000
    329      -0.4752      1.00000
    330      -0.4629      1.00000
    331      -0.4275      1.00000
    332      -0.4133      1.00000
    333      -0.3910      1.00000
    334      -0.3617      1.00000
    335      -0.3368      1.00000
    336      -0.3038      1.00000
    337      -0.2544      1.00000
    338      -0.2442      1.00000
    339      -0.2249      1.00000
    340      -0.2025      1.00000
    341      -0.1506      1.00000
    342      -0.1352      1.00000
    343      -0.0960      1.00000
    344      -0.0728      1.00000
    345      -0.0552      1.00000
    346      -0.0418      1.00000
    347      -0.0286      1.00000
    348      -0.0158      1.00000
    349      -0.0021      1.00000
    350       0.0050      1.00000
    351       0.0137      1.00000
    352       0.0273      1.00000
    353       0.0352      1.00000
    354       0.0698      1.00000
    355       0.0760      1.00000
    356       0.0880      1.00000
    357       0.1035      1.00000
    358       0.1153      1.00000
    359       0.1358      1.00000
    360       0.1497      1.00000
    361       0.1681      1.00000
    362       0.1775      1.00000
    363       0.2415      1.00000
    364       0.2616      1.00000
    365       0.2755      1.00000
    366       0.2863      1.00000
    367       0.3010      1.00000
    368       0.3128      1.00000
    369       0.3263      1.00000
    370       0.3410      1.00000
    371       0.3527      1.00000
    372       0.3577      1.00000
    373       0.3748      1.00000
    374       0.3797      1.00000
    375       0.3971      1.00000
    376       0.4114      1.00000
    377       0.4311      1.00000
    378       0.4416      1.00000
    379       0.4788      1.00000
    380       0.4890      1.00000
    381       0.4946      1.00000
    382       0.5414      1.00000
    383       0.5475      1.00000
    384       0.5592      1.00000
    385       0.5729      1.00000
    386       0.6054      1.00000
    387       0.6330      1.00000
    388       0.6877      1.00000
    389       0.7224      1.00000
    390       0.7751      1.00000
    391       0.7854      1.00000
    392       0.8036      1.00000
    393       0.8251      1.00000
    394       0.8390      1.00000
    395       0.8423      1.00000
    396       0.8687      1.00000
    397       0.8822      1.00000
    398       0.8990      1.00000
    399       0.9179      1.00000
    400       0.9353      1.00000
    401       0.9443      1.00000
    402       0.9716      1.00000
    403       0.9791      1.00000
    404       0.9931      1.00000
    405       1.0048      1.00000
    406       1.0259      1.00000
    407       1.0545      1.00000
    408       1.0789      1.00000
    409       1.0914      1.00000
    410       1.1014      1.00000
    411       1.1169      1.00000
    412       1.1524      1.00000
    413       1.1703      1.00000
    414       1.1824      1.00000
    415       1.1939      1.00000
    416       1.2083      1.00000
    417       1.2268      1.00000
    418       1.2350      1.00000
    419       1.2431      1.00000
    420       1.2644      1.00000
    421       1.2815      1.00000
    422       1.2864      1.00000
    423       1.3005      1.00000
    424       1.3352      1.00000
    425       1.3450      1.00000
    426       1.3491      1.00000
    427       1.3606      1.00000
    428       1.3729      1.00000
    429       1.3787      1.00000
    430       1.3903      1.00000
    431       1.4050      1.00000
    432       1.4103      1.00000
    433       1.4354      1.00000
    434       1.4367      1.00000
    435       1.4454      1.00000
    436       1.4697      1.00000
    437       1.4848      1.00000
    438       1.5003      1.00000
    439       1.5199      1.00000
    440       1.5300      1.00000
    441       1.5443      1.00000
    442       1.5655      1.00000
    443       1.5943      1.00000
    444       1.6109      1.00000
    445       1.6415      1.00000
    446       1.6530      1.00000
    447       1.6659      1.00000
    448       1.6898      1.00000
    449       1.7092      1.00000
    450       1.7512      1.00000
    451       1.7608      1.00000
    452       1.7978      1.00000
    453       1.8134      1.00000
    454       1.8446      1.00000
    455       1.8529      1.00000
    456       1.9440      1.00000
    457       2.0026      1.00000
    458       2.0268      1.00000
    459       2.0772      1.00000
    460       3.2427      1.00000
    461       4.3203      0.00000
    462       4.3627      0.00000
    463       4.3870      0.00000
    464       4.3990      0.00000
    465       4.4059      0.00000
    466       4.4185      0.00000
    467       4.4204      0.00000
    468       4.4556      0.00000
    469       4.4593      0.00000
    470       4.4617      0.00000
    471       4.4701      0.00000
    472       4.4839      0.00000
    473       4.4914      0.00000
    474       4.4965      0.00000
    475       4.5044      0.00000
    476       4.5176      0.00000
    477       4.5287      0.00000
    478       4.5385      0.00000
    479       4.5435      0.00000
    480       4.5610      0.00000
    481       4.5669      0.00000
    482       4.5743      0.00000
    483       4.5779      0.00000
    484       4.5827      0.00000
    485       4.5984      0.00000
    486       4.6120      0.00000
    487       4.6139      0.00000
    488       4.6185      0.00000
    489       4.6280      0.00000
    490       4.6329      0.00000
    491       4.6379      0.00000
    492       4.6564      0.00000
    493       4.6613      0.00000
    494       4.6666      0.00000
    495       4.6737      0.00000
    496       4.6822      0.00000
    497       4.6859      0.00000
    498       4.6929      0.00000
    499       4.6971      0.00000
    500       4.7084      0.00000
    501       4.7172      0.00000
    502       4.7213      0.00000
    503       4.7282      0.00000
    504       4.7328      0.00000
    505       4.7451      0.00000
    506       4.7556      0.00000
    507       4.7619      0.00000
    508       4.7646      0.00000
    509       4.7746      0.00000
    510       4.7798      0.00000
    511       4.7874      0.00000
    512       4.7935      0.00000
    513       4.7996      0.00000
    514       4.8108      0.00000
    515       4.8200      0.00000
    516       4.8296      0.00000
    517       4.8351      0.00000
    518       4.8450      0.00000
    519       4.8531      0.00000
    520       4.8574      0.00000
    521       4.8653      0.00000
    522       4.8744      0.00000
    523       4.8874      0.00000
    524       4.9028      0.00000
    525       4.9110      0.00000
    526       4.9229      0.00000
    527       4.9305      0.00000
    528       4.9358      0.00000
    529       4.9460      0.00000
    530       4.9547      0.00000
    531       4.9590      0.00000
    532       4.9670      0.00000
    533       4.9799      0.00000
    534       4.9913      0.00000
    535       4.9988      0.00000
    536       5.0158      0.00000
    537       5.0346      0.00000
    538       5.0423      0.00000
    539       5.0764      0.00000
    540       5.0936      0.00000
    541       5.1007      0.00000
    542       5.1108      0.00000
    543       5.1417      0.00000
    544       5.1522      0.00000
    545       5.1726      0.00000
    546       5.2141      0.00000
    547       5.2188      0.00000
    548       5.2384      0.00000
    549       5.2460      0.00000
    550       5.2861      0.00000
    551       5.3019      0.00000
    552       5.3655      0.00000
    553       5.4515      0.00000
    554       5.4657      0.00000
    555       5.4735      0.00000
    556       5.5017      0.00000
    557       5.5077      0.00000
    558       5.5414      0.00000
    559       5.5625      0.00000
    560       5.5906      0.00000
    561       5.5990      0.00000
    562       5.6137      0.00000
    563       5.6257      0.00000
    564       5.6297      0.00000
    565       5.6395      0.00000
    566       5.6739      0.00000
    567       5.6817      0.00000
    568       5.6955      0.00000
    569       5.7118      0.00000
    570       5.7250      0.00000
    571       5.7417      0.00000
    572       5.7486      0.00000
    573       5.7599      0.00000
    574       5.7896      0.00000
    575       5.8000      0.00000
    576       7.8818      0.00000
    577       7.9895      0.00000
    578       8.2511      0.00000
    579       8.6274      0.00000
    580       9.1010      0.00000
    581       9.2374      0.00000
    582       9.2994      0.00000
    583       9.3311      0.00000
    584       9.4194      0.00000
    585       9.8582      0.00000
    586       9.9111      0.00000
    587       9.9211      0.00000
    588       9.9501      0.00000
    589       9.9622      0.00000
    590      10.3885      0.00000
    591      10.4145      0.00000
    592      10.5863      0.00000
    593      10.6308      0.00000
    594      10.7626      0.00000
    595      10.7843      0.00000
    596      10.8228      0.00000
    597      10.8414      0.00000
    598      10.8594      0.00000
    599      10.8814      0.00000
    600      10.9174      0.00000
    601      10.9618      0.00000
    602      10.9739      0.00000
    603      11.0230      0.00000
    604      11.1510      0.00000
    605      11.1746      0.00000
    606      11.2094      0.00000
    607      11.2106      0.00000
    608      11.2443      0.00000
    609      11.2757      0.00000
    610      11.3022      0.00000
    611      11.3106      0.00000
    612      11.3261      0.00000
    613      11.3512      0.00000
    614      11.3589      0.00000
    615      11.3790      0.00000
    616      11.3855      0.00000
    617      11.4316      0.00000
    618      11.4464      0.00000
    619      11.4551      0.00000
    620      11.4960      0.00000
    621      11.5559      0.00000
    622      11.5704      0.00000
    623      11.5985      0.00000
    624      11.6203      0.00000
    625      11.6262      0.00000
    626      11.6574      0.00000
    627      11.6788      0.00000
    628      11.6859      0.00000
    629      11.7480      0.00000
    630      11.7781      0.00000
    631      11.7977      0.00000
    632      11.8096      0.00000
    633      11.8467      0.00000
    634      11.8886      0.00000
    635      11.9060      0.00000
    636      11.9151      0.00000
    637      11.9411      0.00000
    638      11.9585      0.00000
    639      11.9762      0.00000
    640      11.9989      0.00000
    641      12.0554      0.00000
    642      12.0606      0.00000
    643      12.0725      0.00000
    644      12.1075      0.00000
    645      12.1225      0.00000
    646      12.1477      0.00000
    647      12.1790      0.00000
    648      12.2068      0.00000
    649      12.2188      0.00000
    650      12.2548      0.00000
    651      12.2766      0.00000
    652      12.2954      0.00000
    653      12.3264      0.00000
    654      12.3453      0.00000
    655      12.3619      0.00000
    656      12.4063      0.00000
    657      12.4255      0.00000
    658      12.4374      0.00000
    659      12.4565      0.00000
    660      12.4720      0.00000
    661      12.5008      0.00000
    662      12.5211      0.00000
    663      12.5491      0.00000
    664      12.5901      0.00000
    665      12.6162      0.00000
    666      12.6567      0.00000
    667      12.6832      0.00000
    668      12.7601      0.00000
    669      12.7889      0.00000
    670      12.8072      0.00000
    671      12.8382      0.00000
    672      12.8577      0.00000
    673      12.9858      0.00000
    674      13.0662      0.00000
    675      13.0924      0.00000
    676      13.1080      0.00000
    677      13.1206      0.00000
    678      13.1339      0.00000
    679      13.1583      0.00000
    680      13.1674      0.00000
    681      13.2026      0.00000
    682      13.2380      0.00000
    683      13.2728      0.00000
    684      13.2952      0.00000
    685      13.3115      0.00000
    686      13.4377      0.00000
    687      13.4879      0.00000
    688      13.4994      0.00000
    689      13.5512      0.00000
    690      13.5716      0.00000
    691      13.6003      0.00000
    692      13.6460      0.00000
    693      13.6669      0.00000
    694      13.7033      0.00000
    695      13.7413      0.00000
    696      13.7678      0.00000


--------------------------------------------------------------------------------------------------------


 soft charge-density along one line, spin component           1
         0         1         2         3         4         5         6         7         8         9
 total charge-density along one line

 soft charge-density along one line, spin component           2
         0         1         2         3         4         5         6         7         8         9
 total charge-density along one line

 pseudopotential strength for first ion, spin component:           1
-53.019   0.006  -0.003  10.982  -0.002   0.001  -0.004  -0.011
  0.006 -53.052   0.088  -0.002  10.996  -0.030  -0.000  -0.003
 -0.003   0.088 -52.993   0.001  -0.030  10.977  -0.003  -0.000
 10.982  -0.002   0.001   4.834   0.000  -0.000   0.002   0.000
 -0.002  10.996  -0.030   0.000   4.831   0.005   0.000   0.001
  0.001  -0.030  10.977  -0.000   0.005   4.834   0.001   0.000
 -0.004  -0.000  -0.003   0.002   0.000   0.001 -10.996   0.075
 -0.011  -0.003  -0.000   0.000   0.001   0.000   0.075 -11.049
  0.001  -0.011   0.010  -0.000   0.003  -0.006   0.002   0.001
 -0.000   0.010  -0.014   0.000  -0.007   0.004   0.000   0.000
  0.002  -0.001  -0.003  -0.000   0.002   0.001  -0.001  -0.002
 -0.004  -0.000  -0.003   0.002   0.000   0.001 -11.465   0.077
 -0.011  -0.003  -0.000   0.000   0.001   0.000   0.077 -11.518
  0.001  -0.011   0.009  -0.000   0.003  -0.006   0.002   0.001
 -0.000   0.010  -0.013   0.000  -0.007   0.004   0.000   0.000
  0.002  -0.001  -0.003  -0.000   0.002   0.001  -0.001  -0.002
  0.001   0.003   0.000   0.000   0.001  -0.000   0.001  -0.001
  0.001   0.005  -0.000   0.001   0.004  -0.000   0.001  -0.002
 pseudopotential strength for first ion, spin component:           2
-49.247   0.006  -0.003   9.398  -0.003   0.001   0.003  -0.030
  0.006 -49.265   0.082  -0.003   9.404  -0.034   0.000  -0.004
 -0.003   0.082 -49.201   0.001  -0.034   9.377  -0.004   0.000
  9.398  -0.003   0.001   5.303  -0.000   0.000  -0.003   0.014
 -0.003   9.404  -0.034  -0.000   5.300  -0.002  -0.000   0.002
  0.001  -0.034   9.377   0.000  -0.002   5.298   0.002  -0.000
  0.003   0.000  -0.004  -0.003  -0.000   0.002  -3.640   0.259
 -0.030  -0.004   0.000   0.014   0.002  -0.000   0.259  -3.863
  0.003  -0.015  -0.019  -0.001   0.005   0.014   0.003   0.003
  0.000  -0.024  -0.012  -0.000   0.018   0.002  -0.006   0.009
  0.005   0.009   0.005  -0.002  -0.006  -0.003  -0.008   0.004
  0.003   0.000  -0.004  -0.004  -0.000   0.002  -4.045   0.263
 -0.030  -0.004   0.000   0.015   0.002  -0.000   0.263  -4.271
  0.003  -0.015  -0.018  -0.001   0.005   0.015   0.003   0.003
  0.000  -0.023  -0.012  -0.000   0.018   0.002  -0.007   0.009
  0.005   0.009   0.005  -0.003  -0.006  -0.003  -0.008   0.004
  0.002   0.006   0.001   0.001   0.002   0.000   0.001  -0.002
  0.004   0.014   0.002   0.001   0.005  -0.000   0.002  -0.003
 total augmentation occupancy for first ion, spin component:           1
  1.986  -0.000  -0.000  -0.053   0.000  -0.000  -0.007   0.010  -0.001  -0.001  -0.002   0.006  -0.008   0.001   0.000   0.001
 -0.000   1.986  -0.000   0.000  -0.052   0.001  -0.000   0.001   0.002   0.017  -0.006   0.000  -0.001  -0.001  -0.016   0.005
 -0.000  -0.000   1.986  -0.000   0.001  -0.051   0.001  -0.000   0.014  -0.002  -0.001  -0.000   0.000  -0.013   0.002   0.001
 -0.053   0.000  -0.000   0.157   0.003  -0.001  -0.094   0.196  -0.007  -0.009  -0.019   0.093  -0.190   0.007   0.008   0.019
  0.000  -0.052   0.001   0.003   0.166   0.040  -0.006   0.008  -0.040   0.259  -0.131   0.006  -0.008   0.035  -0.267   0.133
 -0.000   0.001  -0.051  -0.001   0.040   0.200   0.004  -0.006   0.205  -0.058  -0.004  -0.004   0.006  -0.217   0.055   0.008
 -0.007  -0.000   0.001  -0.094  -0.006   0.004   8.122  -1.964  -0.003   0.139   0.081  -5.741   1.898   0.002  -0.136  -0.080
  0.010   0.001  -0.000   0.196   0.008  -0.006  -1.964   9.731   0.021  -0.101  -0.065   1.898  -7.299  -0.020   0.098   0.065
 -0.001   0.002   0.014  -0.007  -0.040   0.205  -0.003   0.021   6.724   0.069   0.017   0.002  -0.020  -4.400  -0.062  -0.004
 -0.001   0.017  -0.002  -0.009   0.259  -0.058   0.139  -0.101   0.069  12.523   4.718  -0.136   0.098  -0.059 -10.118  -4.636
 -0.002  -0.006  -0.001  -0.019  -0.131  -0.004   0.081  -0.065   0.017   4.718  10.796  -0.080   0.065  -0.001  -4.639  -8.388
  0.006   0.000  -0.000   0.093   0.006  -0.004  -5.741   1.898   0.002  -0.136  -0.080   4.600  -1.874  -0.001   0.135   0.080
 -0.008  -0.001   0.000  -0.190  -0.008   0.006   1.898  -7.299  -0.020   0.098   0.065  -1.874   6.145   0.019  -0.096  -0.066
  0.001  -0.001  -0.013   0.007   0.035  -0.217   0.002  -0.020  -4.400  -0.059  -0.001  -0.001   0.019   3.285   0.069  -0.012
  0.000  -0.016   0.002   0.008  -0.267   0.055  -0.136   0.098  -0.062 -10.118  -4.639   0.135  -0.096   0.069   8.995   4.634
  0.001   0.005   0.001   0.019   0.133   0.008  -0.080   0.065  -0.004  -4.636  -8.388   0.080  -0.066  -0.012   4.634   7.250
 -0.001  -0.006   0.000  -0.005  -0.017   0.000   0.019  -0.046   0.078  -0.692  -0.458  -0.020   0.049  -0.083   0.720   0.464
  0.001   0.003   0.000   0.000   0.000   0.000   0.001  -0.001   0.006  -0.016  -0.001  -0.000  -0.000  -0.002  -0.003  -0.006
 total augmentation occupancy for first ion, spin component:           2
 -0.004  -0.000   0.000  -0.013  -0.000   0.000  -0.000  -0.003   0.000  -0.000   0.001  -0.000   0.003  -0.000   0.000  -0.001
 -0.000  -0.004  -0.000  -0.000  -0.013  -0.001   0.000  -0.000  -0.002  -0.004   0.001  -0.000   0.000   0.002   0.005  -0.001
  0.000  -0.000  -0.004   0.000  -0.001  -0.014  -0.000   0.000  -0.003  -0.001   0.002   0.000  -0.000   0.004   0.001  -0.002
 -0.013  -0.000   0.000   0.017   0.000  -0.000  -0.043   0.086  -0.004  -0.006  -0.011   0.034  -0.063   0.002   0.005   0.008
 -0.000  -0.013  -0.001   0.000   0.018   0.001  -0.003   0.004  -0.009   0.147  -0.053   0.002  -0.003   0.008  -0.102   0.032
  0.000  -0.001  -0.014  -0.000   0.001   0.018   0.003  -0.003   0.115  -0.024  -0.016  -0.002   0.002  -0.075   0.020   0.010
 -0.000   0.000  -0.000  -0.043  -0.003   0.003   7.439  -1.498  -0.005   0.103   0.058  -4.768   1.303   0.004  -0.091  -0.052
 -0.003  -0.000   0.000   0.086   0.004  -0.003  -1.498   8.575   0.016  -0.084  -0.047   1.302  -5.754  -0.013   0.075   0.043
  0.000  -0.002  -0.003  -0.004  -0.009   0.115  -0.005   0.016   6.300   0.156   0.026   0.004  -0.013  -3.779  -0.144  -0.025
 -0.000  -0.004  -0.001  -0.006   0.147  -0.024   0.103  -0.084   0.156  10.234   3.337  -0.091   0.075  -0.146  -7.227  -2.930
  0.001   0.001   0.002  -0.011  -0.053  -0.016   0.058  -0.047   0.026   3.337   9.187  -0.052   0.043  -0.026  -2.928  -6.311
 -0.000  -0.000   0.000   0.034   0.002  -0.002  -4.768   1.302   0.004  -0.091  -0.052   3.134  -1.082  -0.003   0.078   0.045
  0.003   0.000  -0.000  -0.063  -0.003   0.002   1.303  -5.754  -0.013   0.075   0.043  -1.082   3.947   0.011  -0.064  -0.038
 -0.000   0.002   0.004   0.002   0.008  -0.075   0.004  -0.013  -3.779  -0.146  -0.026  -0.003   0.011   2.313   0.119   0.026
  0.000   0.005   0.001   0.005  -0.102   0.020  -0.091   0.075  -0.144  -7.227  -2.928   0.078  -0.064   0.119   5.230   2.471
 -0.001  -0.001  -0.002   0.008   0.032   0.010  -0.052   0.043  -0.025  -2.930  -6.311   0.045  -0.038   0.026   2.471   4.453
  0.000   0.000  -0.000   0.000  -0.002   0.002   0.007  -0.015   0.019  -0.231  -0.174  -0.005   0.010  -0.013   0.169   0.133
 -0.000  -0.000   0.000  -0.000  -0.001   0.000   0.002  -0.003   0.009  -0.049  -0.023  -0.001   0.002  -0.006   0.037   0.020


------------------------ aborting loop because EDIFF is reached ----------------------------------------





 total charge

# of ion       s       p       d       tot
------------------------------------------
    1        0.270   6.320   5.543  12.133
    2        0.272   6.324   5.549  12.144
    3        0.271   6.324   5.548  12.143
    4        0.272   6.326   5.547  12.145
    5        0.272   6.326   5.547  12.145
    6        0.272   6.327   5.550  12.149
    7        0.271   6.324   5.549  12.144
    8        0.270   6.322   5.544  12.137
    9        0.275   6.331   5.572  12.179
   10        0.272   6.323   5.550  12.145
   11        0.270   6.322   5.546  12.138
   12        0.202   6.207   5.931  12.341
   13        0.274   6.329   5.553  12.156
   14        0.272   6.326   5.548  12.146
   15        0.270   6.320   5.546  12.136
   16        0.280   6.339   5.558  12.177
   17        0.271   6.323   5.546  12.140
   18        0.271   6.324   5.546  12.140
   19        0.271   6.324   5.545  12.140
   20        0.272   6.326   5.547  12.144
   21        0.272   6.326   5.548  12.146
   22        0.271   6.323   5.545  12.139
   23        0.271   6.323   5.545  12.139
   24        0.270   6.322   5.544  12.136
   25        1.567   3.603   0.000   5.171
   26        1.567   3.602   0.000   5.169
   27        1.566   3.602   0.000   5.168
   28        1.568   3.602   0.000   5.170
   29        1.565   3.598   0.000   5.163
   30        1.564   3.598   0.000   5.162
   31        1.565   3.600   0.000   5.165
   32        1.566   3.597   0.000   5.163
   33        1.564   3.571   0.000   5.135
   34        1.564   3.558   0.000   5.122
   35        1.565   3.567   0.000   5.132
   36        1.564   3.569   0.000   5.133
   37        1.567   3.576   0.000   5.143
   38        1.564   3.570   0.000   5.134
   39        1.564   3.569   0.000   5.133
   40        1.564   3.568   0.000   5.132
   41        1.568   3.604   0.000   5.171
   42        1.567   3.605   0.000   5.172
   43        1.568   3.605   0.000   5.174
   44        1.567   3.603   0.000   5.171
   45        1.565   3.596   0.000   5.161
   46        1.565   3.598   0.000   5.163
   47        1.566   3.596   0.000   5.162
   48        1.565   3.599   0.000   5.164
   49        1.564   3.568   0.000   5.132
   50        1.564   3.569   0.000   5.133
   51        1.564   3.569   0.000   5.133
   52        1.564   3.568   0.000   5.133
   53        1.565   3.567   0.000   5.132
   54        1.564   3.567   0.000   5.131
   55        1.564   3.569   0.000   5.133
   56        1.564   3.570   0.000   5.134
   57        1.566   3.601   0.000   5.167
   58        1.566   3.596   0.000   5.162
   59        1.566   3.602   0.000   5.169
   60        1.564   3.638   0.000   5.202
   61        1.561   3.638   0.000   5.199
   62        1.564   3.600   0.000   5.164
   63        1.565   3.594   0.000   5.159
   64        1.568   3.606   0.000   5.174
   65        1.564   3.568   0.000   5.132
   66        1.565   3.569   0.000   5.134
   67        1.568   3.573   0.000   5.140
   68        1.564   3.575   0.000   5.139
   69        1.565   3.568   0.000   5.133
   70        1.566   3.582   0.000   5.147
   71        1.564   3.565   0.000   5.129
   72        1.564   3.583   0.000   5.147
   73        1.569   3.602   0.000   5.172
   74        1.568   3.605   0.000   5.174
   75        1.568   3.604   0.000   5.172
   76        1.572   3.617   0.000   5.189
   77        1.563   3.595   0.000   5.158
   78        1.565   3.598   0.000   5.163
   79        1.566   3.597   0.000   5.163
   80        1.567   3.608   0.000   5.176
   81        1.564   3.575   0.000   5.140
   82        1.564   3.572   0.000   5.136
   83        1.565   3.567   0.000   5.131
   84        1.564   3.572   0.000   5.136
   85        1.564   3.568   0.000   5.133
   86        1.565   3.571   0.000   5.135
   87        1.564   3.574   0.000   5.138
   88        1.564   3.567   0.000   5.131
   89        1.567   3.603   0.000   5.171
   90        1.568   3.603   0.000   5.170
   91        1.567   3.604   0.000   5.171
   92        1.568   3.602   0.000   5.169
   93        1.565   3.598   0.000   5.163
   94        1.565   3.597   0.000   5.162
   95        1.565   3.599   0.000   5.164
   96        1.566   3.597   0.000   5.163
   97        1.564   3.570   0.000   5.134
   98        1.564   3.568   0.000   5.132
   99        1.564   3.569   0.000   5.134
  100        1.564   3.570   0.000   5.134
  101        1.564   3.570   0.000   5.134
  102        1.564   3.568   0.000   5.132
  103        1.564   3.570   0.000   5.134
  104        1.564   3.569   0.000   5.134
  105        1.568   3.604   0.000   5.171
  106        1.568   3.603   0.000   5.170
  107        1.568   3.604   0.000   5.171
  108        1.568   3.603   0.000   5.171
  109        1.565   3.597   0.000   5.161
  110        1.565   3.597   0.000   5.162
  111        1.565   3.598   0.000   5.164
  112        1.565   3.599   0.000   5.164
  113        1.565   3.568   0.000   5.132
  114        1.564   3.570   0.000   5.134
  115        1.564   3.568   0.000   5.132
  116        1.564   3.568   0.000   5.132
  117        1.564   3.568   0.000   5.132
  118        1.564   3.567   0.000   5.131
  119        1.564   3.569   0.000   5.133
  120        1.564   3.570   0.000   5.134
  121        0.912   1.501   0.000   2.413
  122        0.912   1.499   0.000   2.411
  123        0.913   1.503   0.000   2.416
  124        0.913   1.501   0.000   2.414
  125        0.913   1.501   0.000   2.414
  126        0.912   1.499   0.000   2.411
  127        0.913   1.504   0.000   2.418
  128        0.912   1.499   0.000   2.412
  129        0.915   1.508   0.000   2.423
  130        0.914   1.503   0.000   2.417
  131        0.913   1.504   0.000   2.416
  132        0.915   1.516   0.000   2.431
  133        0.915   1.510   0.000   2.425
  134        0.912   1.497   0.000   2.409
  135        0.913   1.504   0.000   2.417
  136        0.913   1.504   0.000   2.417
  137        0.913   1.501   0.000   2.413
  138        0.913   1.501   0.000   2.414
  139        0.912   1.501   0.000   2.413
  140        0.913   1.501   0.000   2.413
  141        0.913   1.502   0.000   2.414
  142        0.913   1.501   0.000   2.414
  143        0.912   1.501   0.000   2.413
  144        0.912   1.500   0.000   2.412
  145        0.065   6.010   0.000   6.075
--------------------------------------------------
tot        178.697 538.013 133.547 850.258



 magnetization (x)

# of ion       s       p       d       tot
------------------------------------------
    1        0.024   0.031   4.301   4.356
    2        0.024   0.032   4.297   4.352
    3        0.023   0.031   4.301   4.355
    4        0.023   0.031   4.304   4.358
    5        0.023   0.031   4.303   4.357
    6        0.023   0.031   4.301   4.356
    7        0.023   0.032   4.299   4.354
    8        0.023   0.031   4.303   4.357
    9        0.022   0.033   4.275   4.330
   10        0.024   0.032   4.294   4.350
   11        0.023   0.031   4.301   4.355
   12        0.025   0.022   3.735   3.783
   13        0.024   0.032   4.298   4.354
   14        0.024   0.031   4.302   4.357
   15        0.023   0.032   4.300   4.354
   16        0.025   0.031   4.300   4.356
   17        0.023   0.031   4.301   4.356
   18        0.023   0.031   4.303   4.358
   19        0.023   0.031   4.303   4.358
   20        0.023   0.031   4.304   4.358
   21        0.023   0.031   4.302   4.357
   22        0.023   0.031   4.303   4.357
   23        0.023   0.031   4.303   4.358
   24        0.023   0.031   4.303   4.357
   25        0.007   0.097   0.000   0.105
   26        0.007   0.094   0.000   0.101
   27        0.008   0.098   0.000   0.105
   28        0.007   0.095   0.000   0.102
   29        0.008   0.101   0.000   0.109
   30        0.008   0.109   0.000   0.117
   31        0.007   0.092   0.000   0.099
   32        0.008   0.096   0.000   0.104
   33        0.011   0.129   0.000   0.140
   34        0.010   0.117   0.000   0.127
   35        0.011   0.131   0.000   0.142
   36        0.011   0.124   0.000   0.135
   37        0.009   0.107   0.000   0.116
   38        0.011   0.125   0.000   0.136
   39        0.011   0.130   0.000   0.141
   40        0.011   0.124   0.000   0.135
   41        0.007   0.095   0.000   0.103
   42        0.007   0.093   0.000   0.101
   43        0.007   0.093   0.000   0.100
   44        0.007   0.097   0.000   0.104
   45        0.008   0.103   0.000   0.110
   46        0.008   0.104   0.000   0.111
   47        0.007   0.092   0.000   0.100
   48        0.008   0.098   0.000   0.106
   49        0.011   0.128   0.000   0.139
   50        0.011   0.131   0.000   0.143
   51        0.011   0.124   0.000   0.135
   52        0.011   0.123   0.000   0.134
   53        0.011   0.125   0.000   0.136
   54        0.011   0.127   0.000   0.139
   55        0.011   0.128   0.000   0.139
   56        0.011   0.131   0.000   0.142
   57        0.008   0.104   0.000   0.112
   58        0.007   0.088   0.000   0.095
   59        0.007   0.099   0.000   0.107
   60        0.003   0.027   0.000   0.030
   61        0.008   0.090   0.000   0.098
   62        0.008   0.113   0.000   0.121
   63        0.007   0.084   0.000   0.091
   64        0.003   0.045   0.000   0.048
   65        0.011   0.129   0.000   0.140
   66        0.011   0.122   0.000   0.133
   67        0.009   0.109   0.000   0.118
   68        0.009   0.089   0.000   0.099
   69        0.011   0.130   0.000   0.141
   70        0.010   0.094   0.000   0.104
   71        0.011   0.126   0.000   0.137
   72        0.010   0.105   0.000   0.115
   73        0.007   0.097   0.000   0.104
   74        0.007   0.091   0.000   0.098
   75        0.007   0.095   0.000   0.102
   76        0.007   0.093   0.000   0.101
   77        0.008   0.095   0.000   0.103
   78        0.008   0.105   0.000   0.112
   79        0.007   0.093   0.000   0.100
   80        0.007   0.096   0.000   0.103
   81        0.011   0.129   0.000   0.141
   82        0.012   0.127   0.000   0.139
   83        0.011   0.124   0.000   0.135
   84        0.011   0.127   0.000   0.138
   85        0.011   0.124   0.000   0.135
   86        0.011   0.125   0.000   0.137
   87        0.011   0.125   0.000   0.136
   88        0.011   0.126   0.000   0.138
   89        0.007   0.096   0.000   0.103
   90        0.007   0.096   0.000   0.103
   91        0.007   0.096   0.000   0.103
   92        0.007   0.095   0.000   0.102
   93        0.008   0.102   0.000   0.109
   94        0.008   0.100   0.000   0.108
   95        0.008   0.099   0.000   0.107
   96        0.008   0.096   0.000   0.103
   97        0.011   0.131   0.000   0.142
   98        0.011   0.127   0.000   0.138
   99        0.011   0.126   0.000   0.137
  100        0.011   0.125   0.000   0.136
  101        0.011   0.126   0.000   0.137
  102        0.011   0.124   0.000   0.135
  103        0.011   0.128   0.000   0.139
  104        0.011   0.128   0.000   0.139
  105        0.007   0.096   0.000   0.103
  106        0.007   0.096   0.000   0.103
  107        0.007   0.097   0.000   0.104
  108        0.007   0.097   0.000   0.104
  109        0.008   0.102   0.000   0.110
  110        0.008   0.101   0.000   0.109
  111        0.008   0.099   0.000   0.106
  112        0.008   0.098   0.000   0.106
  113        0.011   0.127   0.000   0.138
  114        0.011   0.127   0.000   0.139
  115        0.011   0.127   0.000   0.138
  116        0.011   0.126   0.000   0.138
  117        0.011   0.126   0.000   0.137
  118        0.011   0.122   0.000   0.133
  119        0.011   0.127   0.000   0.139
  120        0.011   0.128   0.000   0.139
  121        0.004   0.013   0.000   0.017
  122        0.004   0.012   0.000   0.016
  123        0.004   0.013   0.000   0.017
  124        0.004   0.013   0.000   0.017
  125        0.004   0.013   0.000   0.017
  126        0.004   0.012   0.000   0.016
  127        0.004   0.013   0.000   0.017
  128        0.004   0.013   0.000   0.016
  129        0.003   0.011   0.000   0.015
  130        0.003   0.012   0.000   0.015
  131        0.004   0.013   0.000   0.017
  132        0.004   0.014   0.000   0.018
  133        0.004   0.013   0.000   0.017
  134        0.003   0.012   0.000   0.016
  135        0.004   0.013   0.000   0.017
  136        0.004   0.012   0.000   0.015
  137        0.004   0.013   0.000   0.017
  138        0.004   0.013   0.000   0.017
  139        0.004   0.013   0.000   0.017
  140        0.004   0.013   0.000   0.017
  141        0.004   0.013   0.000   0.017
  142        0.004   0.013   0.000   0.017
  143        0.004   0.013   0.000   0.017
  144        0.004   0.013   0.000   0.016
  145        0.000   0.000   0.000   0.001
--------------------------------------------------
tot          1.527  11.528 102.634 115.690

    FORLOC:  cpu time      0.0156: real time      0.0157
    FORNL :  cpu time      2.1185: real time      2.1309
    STRESS:  cpu time      6.2822: real time      6.3184
    FORCOR:  cpu time      0.1076: real time      0.1080
    OFIELD:  cpu time      0.0004: real time      0.0004

  FORCE on cell =-STRESS in cart. coord.  units (eV):
  Direction    XX          YY          ZZ          XY          YZ          ZX
  --------------------------------------------------------------------------------------
  Alpha Z  2952.23722  2952.23722  2952.23722
  Ewald  -22824.35364-18252.55600-21417.11695  -113.12125    23.67541  -215.67772
  Hartree 10011.94226 15467.48629 11988.39131   -68.74265    13.89810  -120.83804
  E(xc)   -5544.11105 -5547.61120 -5547.32191    -0.08903     0.04405    -0.20990
  Local   -4101.83586-14327.40585 -7470.93701   181.21278   -38.26172   319.69646
  n-local -1706.38670 -1836.54969 -1749.07259    -1.20969    -0.25741    -2.36906
  augment  3988.60845  4011.45866  3981.05207    -0.84464     0.61426     7.94446
  Kinetic 17234.69994 17540.27966 17273.18555     1.31170     1.77045     8.12607
  Fock        0.00000     0.00000     0.00000     0.00000     0.00000     0.00000
  -------------------------------------------------------------------------------------
  Total      10.80061     7.33908    10.41769    -1.48279     1.48314    -3.32772
  in kB      10.04103     6.82295     9.68504    -1.37851     1.37883    -3.09369
  external pressure =        8.85 kB  Pullay stress =        0.00 kB


 VOLUME and BASIS-vectors are now :
 -----------------------------------------------------------------------------
  energy-cutoff  :      520.00
  volume of cell :     1723.38
      direct lattice vectors                 reciprocal lattice vectors
     9.962489075 -0.000069663 -0.000154526     0.100376522  0.000000553 -0.000000819
    -0.000097698 17.717656860 -0.000226836     0.000000395  0.056440872 -0.000000631
     0.000079674  0.000109170  9.763519320     0.000001589  0.000001311  0.102422084

  length of vectors
     9.962489076 17.717656862  9.763519321     0.100376522  0.056440872  0.102422084


 FORCES acting on ions:
    Electron-Ion                     Ewald-Force                    Non-Local-Force
 -----------------------------------------------------------------------------------------------
   -.508E+02 0.548E+01 0.370E+02   0.508E+02 -.586E+01 -.386E+02   0.359E-01 0.390E+00 0.161E+01
   0.659E+02 0.235E+02 0.295E+02   -.667E+02 -.243E+02 -.314E+02   0.758E+00 0.882E+00 0.187E+01
   0.226E+02 0.263E+02 -.388E+02   -.228E+02 -.253E+02 0.412E+02   0.241E+00 -.103E+01 -.244E+01
   -.361E+02 0.131E+02 -.209E+02   0.365E+02 -.124E+02 0.234E+02   -.401E+00 -.756E+00 -.258E+01
   -.454E+02 0.134E+02 0.339E+02   0.455E+02 -.134E+02 -.356E+02   -.105E+00 0.681E-02 0.173E+01
   0.586E+02 0.218E+02 0.495E+02   -.585E+02 -.223E+02 -.504E+02   -.110E+00 0.514E+00 0.895E+00
   0.527E+02 0.340E+02 -.360E+02   -.515E+02 -.327E+02 0.369E+02   -.125E+01 -.128E+01 -.908E+00
   -.458E+02 0.106E+02 -.338E+02   0.456E+02 -.105E+02 0.356E+02   0.167E+00 -.955E-01 -.179E+01
   0.270E+02 0.126E+02 -.243E+02   -.284E+02 -.133E+02 0.238E+02   0.135E+01 0.729E+00 0.531E+00
   0.906E+02 -.443E+02 0.443E+02   -.922E+02 0.450E+02 -.460E+02   0.161E+01 -.680E+00 0.165E+01
   0.107E+02 -.211E+02 -.330E+02   -.109E+02 0.206E+02 0.351E+02   0.177E+00 0.562E+00 -.206E+01
   -.115E+03 0.325E+01 -.117E+02   0.118E+03 -.373E+01 0.141E+02   -.239E+01 0.474E+00 -.237E+01
   0.150E+02 -.351E+01 0.856E+02   -.152E+02 0.302E+01 -.873E+02   0.139E+00 0.477E+00 0.168E+01
   0.627E+02 -.151E+02 0.416E+02   -.627E+02 0.157E+02 -.427E+02   0.790E-01 -.662E+00 0.109E+01
   0.491E+02 -.430E+02 -.400E+02   -.473E+02 0.416E+02 0.413E+02   -.175E+01 0.148E+01 -.123E+01
   -.920E+02 -.153E+01 -.482E+02   0.908E+02 0.139E+01 0.495E+02   0.114E+01 0.135E+00 -.134E+01
   -.411E+02 -.122E+02 0.294E+02   0.413E+02 0.126E+02 -.312E+02   -.183E+00 -.362E+00 0.184E+01
   0.437E+02 -.914E+00 0.280E+02   -.439E+02 0.103E+01 -.300E+02   0.143E+00 -.112E+00 0.199E+01
   0.438E+02 0.135E+01 -.321E+02   -.438E+02 -.125E+01 0.340E+02   0.377E-01 -.975E-01 -.186E+01
   -.407E+02 -.129E+02 -.223E+02   0.410E+02 0.123E+02 0.248E+02   -.312E+00 0.600E+00 -.250E+01
   -.454E+02 -.132E+02 0.382E+02   0.456E+02 0.134E+02 -.399E+02   -.142E+00 -.216E+00 0.172E+01
   0.466E+02 0.304E+00 0.348E+02   -.467E+02 -.139E+00 -.367E+02   0.654E-01 -.164E+00 0.188E+01
   0.459E+02 0.117E+01 -.337E+02   -.459E+02 -.106E+01 0.356E+02   0.215E-01 -.106E+00 -.194E+01
   -.463E+02 -.593E+01 -.327E+02   0.462E+02 0.604E+01 0.346E+02   0.774E-01 -.105E+00 -.189E+01
   0.191E+03 0.539E+01 -.567E+02   -.197E+03 -.513E+01 0.896E+02   0.642E+01 -.259E+00 -.329E+02
   -.192E+03 0.224E+02 -.576E+02   0.198E+03 -.225E+02 0.906E+02   -.680E+01 0.952E-01 -.330E+02
   -.187E+03 -.681E+01 0.533E+02   0.192E+03 0.808E+01 -.859E+02   -.547E+01 -.127E+01 0.326E+02
   0.194E+03 0.211E+01 0.596E+02   -.201E+03 -.235E+01 -.930E+02   0.666E+01 0.240E+00 0.334E+02
   -.575E+02 0.497E+01 -.169E+03   0.292E+02 -.506E+01 0.186E+03   0.283E+02 0.797E-01 -.170E+02
   0.654E+02 -.249E+01 -.160E+03   -.378E+02 0.297E+01 0.176E+03   -.275E+02 -.482E+00 -.158E+02
   0.435E+02 0.245E+02 0.159E+03   -.144E+02 -.256E+02 -.175E+03   -.290E+02 0.112E+01 0.162E+02
   -.495E+02 0.449E+01 0.169E+03   0.206E+02 -.499E+01 -.187E+03   0.290E+02 0.508E+00 0.171E+02
   0.101E+03 0.620E+02 0.672E+02   -.915E+02 -.847E+02 -.841E+02   -.970E+01 0.228E+02 0.169E+02
   -.780E+02 -.152E+02 0.658E+02   0.683E+02 0.373E+02 -.829E+02   0.978E+01 -.222E+02 0.171E+02
   -.103E+03 0.547E+02 -.811E+02   0.942E+02 -.770E+02 0.992E+02   0.876E+01 0.223E+02 -.180E+02
   0.971E+02 -.566E+02 -.715E+02   -.873E+02 0.797E+02 0.887E+02   -.980E+01 -.231E+02 -.172E+02
   -.112E+03 -.938E+02 -.326E+02   0.102E+03 0.121E+03 0.485E+02   0.930E+01 -.277E+02 -.159E+02
   0.100E+03 0.606E+02 -.695E+02   -.906E+02 -.834E+02 0.865E+02   -.964E+01 0.228E+02 -.170E+02
   0.105E+03 -.557E+02 0.664E+02   -.958E+02 0.784E+02 -.833E+02   -.943E+01 -.227E+02 0.170E+02
   -.973E+02 0.770E+02 0.530E+02   0.871E+02 -.100E+03 -.689E+02   0.101E+02 0.232E+02 0.158E+02
   0.196E+03 0.595E+01 -.577E+02   -.202E+03 -.600E+01 0.909E+02   0.645E+01 0.559E-01 -.332E+02
   -.191E+03 0.119E+02 -.541E+02   0.196E+03 -.115E+02 0.870E+02   -.568E+01 -.363E+00 -.329E+02
   -.192E+03 0.901E+01 0.557E+02   0.199E+03 -.937E+01 -.891E+02   -.689E+01 0.365E+00 0.334E+02
   0.192E+03 0.522E+01 0.576E+02   -.198E+03 -.525E+01 -.906E+02   0.669E+01 0.268E-01 0.330E+02
   -.568E+02 0.206E+01 -.165E+03   0.288E+02 -.147E+01 0.182E+03   0.280E+02 -.583E+00 -.170E+02
   0.629E+02 0.452E+01 -.173E+03   -.350E+02 -.468E+01 0.190E+03   -.279E+02 0.153E+00 -.174E+02
   0.410E+02 0.146E+02 0.172E+03   -.117E+02 -.150E+02 -.190E+03   -.293E+02 0.425E+00 0.176E+02
   -.535E+02 0.616E+01 0.165E+03   0.249E+02 -.617E+01 -.182E+03   0.287E+02 0.363E-02 0.169E+02
   0.999E+02 0.623E+02 0.724E+02   -.902E+02 -.851E+02 -.898E+02   -.975E+01 0.228E+02 0.173E+02
   -.927E+02 -.490E+02 0.677E+02   0.829E+02 0.714E+02 -.840E+02   0.979E+01 -.223E+02 0.163E+02
   -.101E+03 0.676E+02 -.692E+02   0.916E+02 -.907E+02 0.860E+02   0.980E+01 0.231E+02 -.169E+02
   0.100E+03 -.590E+02 -.619E+02   -.901E+02 0.824E+02 0.784E+02   -.990E+01 -.234E+02 -.165E+02
   -.102E+03 -.564E+02 -.763E+02   0.925E+02 0.800E+02 0.935E+02   0.100E+02 -.236E+02 -.172E+02
   0.102E+03 0.622E+02 -.698E+02   -.931E+02 -.851E+02 0.869E+02   -.928E+01 0.229E+02 -.171E+02
   0.102E+03 -.526E+02 0.723E+02   -.928E+02 0.753E+02 -.892E+02   -.933E+01 -.227E+02 0.170E+02
   -.103E+03 0.725E+02 0.657E+02   0.938E+02 -.955E+02 -.820E+02   0.944E+01 0.230E+02 0.163E+02
   0.225E+03 0.333E+01 -.428E+02   -.232E+03 -.364E+01 0.742E+02   0.700E+01 0.298E+00 -.314E+02
   -.182E+03 -.325E+02 -.462E+02   0.189E+03 0.324E+02 0.786E+02   -.677E+01 0.166E+00 -.323E+02
   -.190E+03 0.705E+01 0.526E+02   0.196E+03 -.859E+01 -.850E+02   -.570E+01 0.153E+01 0.324E+02
   0.819E+02 0.249E+02 0.394E+02   -.812E+02 -.267E+02 -.719E+02   -.670E+00 0.186E+01 0.326E+02
   -.652E+02 0.319E+02 -.558E+02   0.398E+02 -.351E+02 0.649E+02   0.255E+02 0.313E+01 -.908E+01
   0.724E+02 0.301E+01 -.160E+03   -.453E+02 -.348E+01 0.176E+03   -.272E+02 0.472E+00 -.160E+02
   0.255E+02 -.305E+02 0.144E+03   0.344E+01 0.292E+02 -.161E+03   -.290E+02 0.134E+01 0.166E+02
   -.141E+02 -.535E+01 0.166E+03   -.179E+02 0.626E+01 -.185E+03   0.320E+02 -.908E+00 0.185E+02
   0.117E+03 0.711E+02 0.572E+02   -.107E+03 -.932E+02 -.727E+02   -.103E+02 0.221E+02 0.155E+02
   -.971E+02 -.765E+02 0.637E+02   0.876E+02 0.995E+02 -.811E+02   0.946E+01 -.230E+02 0.175E+02
   -.113E+03 0.972E+02 -.299E+02   0.104E+03 -.125E+03 0.456E+02   0.952E+01 0.282E+02 -.157E+02
   0.376E+02 -.456E+02 -.803E+02   -.276E+02 0.675E+02 0.101E+03   -.993E+01 -.219E+02 -.202E+02
   -.102E+03 -.555E+02 -.806E+02   0.930E+02 0.779E+02 0.985E+02   0.895E+01 -.224E+02 -.179E+02
   0.489E+02 0.402E+02 -.909E+02   -.371E+02 -.613E+02 0.112E+03   -.117E+02 0.211E+02 -.208E+02
   0.114E+03 -.645E+02 0.635E+02   -.103E+03 0.862E+02 -.787E+02   -.117E+02 -.217E+02 0.151E+02
   -.180E+02 0.319E+01 0.803E+01   0.324E+01 -.237E+02 -.206E+02   0.148E+02 0.205E+02 0.126E+02
   0.214E+03 -.255E+01 -.688E+02   -.222E+03 0.239E+01 0.103E+03   0.842E+01 0.156E+00 -.340E+02
   -.195E+03 -.150E+02 -.640E+02   0.202E+03 0.153E+02 0.979E+02   -.696E+01 -.308E+00 -.339E+02
   -.193E+03 -.111E+02 0.558E+02   0.200E+03 0.115E+02 -.893E+02   -.698E+01 -.402E+00 0.335E+02
   0.197E+03 -.273E+01 0.556E+02   -.206E+03 0.370E+01 -.898E+02   0.893E+01 -.976E+00 0.342E+02
   -.610E+02 -.183E+01 -.189E+03   0.337E+02 0.296E+01 0.205E+03   0.272E+02 -.112E+01 -.163E+02
   0.640E+02 -.361E+01 -.173E+03   -.364E+02 0.364E+01 0.191E+03   -.277E+02 -.344E-01 -.175E+02
   0.420E+02 -.188E+02 0.180E+03   -.131E+02 0.201E+02 -.198E+03   -.289E+02 -.122E+01 0.182E+02
   -.584E+02 -.259E+01 0.178E+03   0.303E+02 0.289E+01 -.198E+03   0.281E+02 -.298E+00 0.198E+02
   0.114E+03 0.878E+02 0.489E+02   -.105E+03 -.112E+03 -.634E+02   -.898E+01 0.247E+02 0.146E+02
   -.949E+02 -.698E+02 0.596E+02   0.847E+02 0.928E+02 -.752E+02   0.102E+02 -.230E+02 0.157E+02
   -.103E+03 0.588E+02 -.729E+02   0.926E+02 -.826E+02 0.895E+02   0.998E+01 0.238E+02 -.166E+02
   0.902E+02 -.744E+02 -.672E+02   -.804E+02 0.979E+02 0.837E+02   -.982E+01 -.235E+02 -.165E+02
   -.100E+03 -.670E+02 -.708E+02   0.903E+02 0.902E+02 0.879E+02   0.100E+02 -.232E+02 -.171E+02
   0.961E+02 0.797E+02 -.659E+02   -.867E+02 -.104E+03 0.828E+02   -.948E+01 0.240E+02 -.168E+02
   0.106E+03 -.838E+02 0.530E+02   -.963E+02 0.108E+03 -.684E+02   -.101E+02 -.243E+02 0.154E+02
   -.886E+02 0.489E+02 0.718E+02   0.787E+02 -.714E+02 -.884E+02   0.998E+01 0.226E+02 0.166E+02
   0.194E+03 -.487E+01 -.583E+02   -.200E+03 0.464E+01 0.914E+02   0.642E+01 0.228E+00 -.331E+02
   -.194E+03 0.287E+00 -.594E+02   0.201E+03 -.356E+00 0.925E+02   -.655E+01 0.675E-01 -.331E+02
   -.193E+03 0.325E+00 0.580E+02   0.199E+03 -.358E+00 -.911E+02   -.648E+01 0.316E-01 0.331E+02
   0.192E+03 -.304E+01 0.591E+02   -.199E+03 0.318E+01 -.924E+02   0.674E+01 -.139E+00 0.334E+02
   -.578E+02 -.538E+01 -.167E+03   0.296E+02 0.530E+01 0.184E+03   0.281E+02 0.721E-01 -.171E+02
   0.552E+02 -.689E+00 -.167E+03   -.268E+02 0.727E+00 0.184E+03   -.284E+02 -.387E-01 -.168E+02
   0.539E+02 0.308E-01 0.167E+03   -.254E+02 -.211E+00 -.184E+03   -.285E+02 0.180E+00 0.171E+02
   -.486E+02 -.172E+01 0.170E+03   0.196E+02 0.183E+01 -.187E+03   0.290E+02 -.110E+00 0.173E+02
   0.106E+03 0.491E+02 0.728E+02   -.963E+02 -.709E+02 -.901E+02   -.941E+01 0.219E+02 0.172E+02
   -.101E+03 -.598E+02 0.667E+02   0.911E+02 0.828E+02 -.837E+02   0.969E+01 -.230E+02 0.170E+02
   -.100E+03 0.572E+02 -.707E+02   0.909E+02 -.801E+02 0.879E+02   0.959E+01 0.229E+02 -.172E+02
   0.996E+02 -.630E+02 -.665E+02   -.900E+02 0.860E+02 0.833E+02   -.961E+01 -.230E+02 -.168E+02
   -.101E+03 -.575E+02 -.695E+02   0.909E+02 0.804E+02 0.866E+02   0.962E+01 -.230E+02 -.171E+02
   0.910E+02 0.533E+02 -.686E+02   -.809E+02 -.765E+02 0.857E+02   -.101E+02 0.232E+02 -.171E+02
   0.102E+03 -.647E+02 0.659E+02   -.922E+02 0.877E+02 -.827E+02   -.976E+01 -.230E+02 0.168E+02
   -.101E+03 0.564E+02 0.682E+02   0.915E+02 -.791E+02 -.852E+02   0.961E+01 0.227E+02 0.170E+02
   0.196E+03 -.499E+01 -.572E+02   -.203E+03 0.507E+01 0.904E+02   0.643E+01 -.788E-01 -.331E+02
   -.194E+03 -.137E+01 -.575E+02   0.201E+03 0.128E+01 0.906E+02   -.657E+01 0.946E-01 -.332E+02
   -.193E+03 0.344E+00 0.571E+02   0.200E+03 -.347E+00 -.901E+02   -.665E+01 0.288E-02 0.331E+02
   0.192E+03 -.523E+01 0.584E+02   -.199E+03 0.540E+01 -.914E+02   0.681E+01 -.174E+00 0.330E+02
   -.575E+02 -.509E+01 -.168E+03   0.295E+02 0.500E+01 0.185E+03   0.280E+02 0.894E-01 -.171E+02
   0.563E+02 0.397E+00 -.166E+03   -.281E+02 -.430E+00 0.183E+03   -.283E+02 0.325E-01 -.169E+02
   0.527E+02 0.985E-01 0.168E+03   -.241E+02 -.110E+00 -.185E+03   -.286E+02 0.111E-01 0.172E+02
   -.534E+02 -.419E+01 0.165E+03   0.249E+02 0.422E+01 -.182E+03   0.286E+02 -.303E-01 0.170E+02
   0.102E+03 0.536E+02 0.729E+02   -.925E+02 -.765E+02 -.902E+02   -.975E+01 0.229E+02 0.173E+02
   -.102E+03 -.573E+02 0.696E+02   0.923E+02 0.802E+02 -.866E+02   0.960E+01 -.228E+02 0.170E+02
   -.100E+03 0.605E+02 -.666E+02   0.905E+02 -.836E+02 0.835E+02   0.967E+01 0.231E+02 -.169E+02
   0.987E+02 -.628E+02 -.673E+02   -.890E+02 0.857E+02 0.842E+02   -.968E+01 -.229E+02 -.169E+02
   -.999E+02 -.601E+02 -.667E+02   0.902E+02 0.833E+02 0.837E+02   0.972E+01 -.232E+02 -.169E+02
   0.969E+02 0.559E+02 -.649E+02   -.871E+02 -.791E+02 0.815E+02   -.977E+01 0.232E+02 -.167E+02
   0.103E+03 -.648E+02 0.658E+02   -.939E+02 0.878E+02 -.826E+02   -.943E+01 -.230E+02 0.167E+02
   -.102E+03 0.563E+02 0.720E+02   0.920E+02 -.790E+02 -.892E+02   0.959E+01 0.226E+02 0.172E+02
   0.673E+02 0.254E+01 0.316E+01   -.684E+02 -.265E+01 -.818E+00   0.117E+01 0.116E+00 -.245E+01
   -.629E+02 0.188E+02 0.688E+00   0.643E+02 -.189E+02 0.187E+01   -.140E+01 0.191E+00 -.270E+01
   -.673E+02 0.464E+00 0.602E+01   0.670E+02 0.581E+00 -.768E+01   0.326E+00 -.110E+01 0.173E+01
   0.641E+02 0.333E+01 -.513E+01   -.648E+02 -.322E+01 0.275E+01   0.742E+00 -.113E+00 0.250E+01
   0.669E+02 0.467E+01 0.573E+01   -.679E+02 -.481E+01 -.316E+01   0.102E+01 0.146E+00 -.269E+01
   -.665E+02 0.110E+02 0.598E+01   0.680E+02 -.112E+02 -.356E+01   -.158E+01 0.272E+00 -.254E+01
   -.650E+02 0.516E+01 -.847E+01   0.655E+02 -.491E+01 0.579E+01   -.517E+00 -.270E+00 0.280E+01
   0.666E+02 0.212E+01 -.339E+01   -.672E+02 -.207E+01 0.769E+00   0.579E+00 -.572E-01 0.274E+01
   0.881E+02 0.125E+01 -.168E+01   -.919E+02 -.116E+01 0.294E+01   0.388E+01 -.900E-01 -.132E+01
   -.611E+02 -.289E+02 -.137E+02   0.623E+02 0.290E+02 0.164E+02   -.117E+01 -.343E-01 -.277E+01
   -.682E+02 -.292E+00 0.664E+01   0.677E+02 -.706E+00 -.814E+01   0.475E+00 0.104E+01 0.156E+01
   0.181E+02 0.671E+01 0.192E+02   -.173E+02 -.691E+01 -.214E+02   -.822E+00 0.196E+00 0.228E+01
   0.724E+02 -.111E+01 -.524E+01   -.738E+02 0.126E+01 0.747E+01   0.147E+01 -.162E+00 -.232E+01
   -.619E+02 -.129E+02 0.846E+01   0.635E+02 0.130E+02 -.670E+01   -.167E+01 -.297E-01 -.183E+01
   -.656E+02 -.524E+01 -.790E+01   0.660E+02 0.515E+01 0.532E+01   -.423E+00 0.951E-01 0.270E+01
   0.530E+02 0.459E+01 -.236E+02   -.530E+02 -.463E+01 0.201E+02   0.424E-01 0.318E-01 0.361E+01
   0.686E+02 -.391E+01 0.422E+01   -.698E+02 0.415E+01 -.171E+01   0.128E+01 -.248E+00 -.263E+01
   -.663E+02 -.180E+01 0.334E+01   0.673E+02 0.182E+01 -.885E+00   -.965E+00 -.257E-01 -.257E+01
   -.664E+02 0.294E-01 -.470E+01   0.671E+02 -.108E-01 0.224E+01   -.740E+00 -.205E-01 0.257E+01
   0.630E+02 -.447E+01 -.341E+01   -.637E+02 0.432E+01 0.105E+01   0.703E+00 0.148E+00 0.247E+01
   0.678E+02 -.439E+01 0.436E+01   -.687E+02 0.425E+01 -.187E+01   0.977E+00 0.149E+00 -.261E+01
   -.668E+02 -.213E+00 0.441E+01   0.677E+02 0.218E+00 -.194E+01   -.101E+01 -.596E-02 -.259E+01
   -.657E+02 0.338E+00 -.395E+01   0.664E+02 -.295E+00 0.150E+01   -.718E+00 -.456E-01 0.257E+01
   0.637E+02 -.290E+01 -.385E+01   -.643E+02 0.288E+01 0.127E+01   0.687E+00 0.249E-01 0.270E+01
   -.405E+02 0.446E+01 0.235E+02   0.426E+02 -.403E+01 -.237E+02   -.212E+01 -.282E+00 0.117E+00
 -----------------------------------------------------------------------------------------------
   0.820E+00 -.254E+01 0.620E+01   -.149E-12 -.156E-11 0.831E-12   -.794E+00 0.252E+01 -.621E+01


 POSITION                                       TOTAL-FORCE (eV/Angst)
 -----------------------------------------------------------------------------------
      2.73866      1.48037      4.66860         0.003910      0.008824     -0.007476
      2.25836      4.39544      2.21567         0.003185      0.001142     -0.006680
      7.22986      4.40968      0.20246         0.004715     -0.001625      0.001478
      7.72200      1.45904      2.64357         0.004805      0.001654     -0.001111
      2.73972      1.45959      9.54896         0.005610      0.002207     -0.008301
      2.24414      4.38445      7.12901         0.001142     -0.001575     -0.009898
      7.26297      4.42367      5.08621         0.003130     -0.003176     -0.000472
      7.71148      1.47336      7.52422         0.003124      0.001767      0.001242
      2.68286      7.35355      4.80721        -0.002005     -0.008746      0.000357
      2.22959     10.39443      2.23604        -0.005527      0.002164      0.008975
      7.21023     10.33105      0.20491        -0.006806     -0.009544      0.002919
      7.82366      7.35835      2.66536         0.003497     -0.007834      0.003259
      2.72616      7.35705      9.51155         0.000287     -0.013307      0.002213
      2.23087     10.37636      7.15429        -0.006002     -0.001332      0.006990
      7.24683     10.33285      5.09186        -0.007249     -0.001638      0.004046
      7.76067      7.37493      7.49021         0.004120     -0.003534      0.004353
      2.73083     13.31859      4.68028        -0.001971      0.009387      0.003218
      2.25079     16.24762      2.23079        -0.000065      0.001640     -0.003511
      7.22717     16.24151      0.20322         0.000785     -0.001223     -0.000965
      7.71530     13.30873      2.64251         0.000667     -0.003641     -0.000315
      2.73729     13.31519      9.55556         0.000721     -0.001266      0.000247
      2.24317     16.24690      7.11185         0.000907      0.002516     -0.001486
      7.22475     16.24372      5.08800         0.001087      0.001280     -0.001594
      7.70732     13.29312      7.52653        -0.000769     -0.002089      0.002241
      1.22542      1.47288      3.47595         0.001039      0.000200     -0.002524
      3.79085      4.40686      1.03508         0.000554     -0.005031     -0.008192
      8.73750      4.40737      1.41617         0.004349     -0.001450      0.001742
      6.18696      1.46289      3.82331         0.002720      0.000764     -0.000260
      4.43455      1.46160      0.73740         0.001087     -0.001136     -0.002539
      0.57448      4.38587      3.15854         0.002016     -0.000472     -0.000901
      5.54135      4.41136      4.15499         0.005310     -0.003161     -0.002051
      9.42504      1.44738      1.67976         0.003262      0.000568     -0.002177
      1.69757      0.26212      1.25496         0.002853      0.000111     -0.003064
      3.35744      5.68288      3.70679         0.012825      0.009541     -0.008107
      8.32178      3.13584      3.61909         0.004253     -0.003124      0.000643
      6.66408      2.66391      1.17442         0.001673     -0.001628      0.000485
      8.31820      5.52274      3.70222         0.001905     -0.003167      0.001972
      6.66691      0.26399      1.17164         0.002137     -0.001264     -0.000317
      1.69459      2.65838      1.24397         0.001164     -0.000073     -0.004810
      3.28539      3.26490      3.70014         0.002028      0.005229     -0.003257
      1.21375      1.45950      8.36549         0.001916      0.002570     -0.003228
      3.75359      4.44546      5.92775        -0.001227      0.005086     -0.006018
      8.77855      4.39978      6.28149         0.004205      0.001634     -0.002729
      6.19053      1.46609      8.70916         0.002007     -0.000191      0.000133
      4.43484      1.49148      5.61445         0.001332      0.004423     -0.003598
      0.55796      4.40025      8.08356         0.002807     -0.000625     -0.002687
      5.52758      4.39754      8.98005         0.002977      0.001360     -0.001665
      9.41465      1.46259      6.57815         0.001826     -0.001405     -0.003697
      1.68596      0.26691      6.13378         0.002207      0.000472     -0.003009
      3.27659      5.59523      8.56798        -0.001511     -0.004582     -0.004837
      8.27880      3.21504      8.50773         0.001486      0.000313     -0.001140
      6.68036      2.66429      6.05394         0.002539      0.001265      0.000595
      8.30150      5.62272      8.48952         0.002191     -0.001952     -0.000517
      6.65704      0.26756      6.05553         0.000311      0.001056     -0.000121
      1.68484      2.66293      6.13960         0.000541      0.000335     -0.003987
      3.29336      3.20325      8.57685         0.004033     -0.003481     -0.005805
      1.26287      7.36659      3.51184        -0.009038     -0.007957      0.000683
      3.80108     10.31359      1.07476         0.000104     -0.010071      0.006816
      8.71160     10.33611      1.41658        -0.008706     -0.008016      0.002596
      6.20126      7.35296      3.86256        -0.002032     -0.008903      0.015362
      4.47574      7.30202      0.56752        -0.005235     -0.026775      0.005266
      0.54666     10.37924      3.16025        -0.011222     -0.001467     -0.000220
      5.50014     10.30968      4.15468        -0.005635     -0.014158      0.002894
      9.52189      7.40399      1.64661        -0.003108      0.004390      0.002561
      1.78390      6.18490      1.28517        -0.007572     -0.002762     -0.005351
      3.28954     11.55873      3.72335        -0.001215      0.010353      0.010488
      8.29200      9.23176      3.70326        -0.008012     -0.003844      0.004686
      6.58836      8.59006      1.07943        -0.019335     -0.003372      0.001697
      8.29600     11.62015      3.61531        -0.007488     -0.002363      0.001339
      6.67619      6.14917      1.05199         0.008613     -0.010001     -0.008322
      1.81994      8.57286      1.31601         0.001001     -0.001792      0.005476
      3.23961      9.16777      3.78969        -0.010932      0.013579      0.014205
      1.15701      7.37784      8.40978         0.000302     -0.003935      0.002083
      3.76479     10.38470      5.98024        -0.000579      0.013808      0.014251
      8.76532     10.36357      6.28738        -0.005371     -0.000443     -0.001985
      6.21412      7.38180      8.58397         0.002267     -0.003856      0.013577
      4.44413      7.40104      5.64591         0.000020      0.004098      0.006665
      0.54132     10.35857      8.09441        -0.006813     -0.005318     -0.000350
      5.51288     10.36940      8.99361        -0.003055     -0.000978      0.003210
      9.42620      7.39288      6.54362        -0.004357      0.001686     -0.003057
      1.68256      6.18408      6.19341        -0.004374      0.000294     -0.002540
      3.26580     11.53924      8.62435        -0.008133     -0.005181      0.011888
      8.28236      9.14182      8.49882        -0.003661     -0.000606      0.001184
      6.69170      8.57932      6.06162        -0.001671      0.000324      0.005159
      8.26421     11.54887      8.51206        -0.002292     -0.000751      0.001639
      6.68075      6.16959      6.07351        -0.001081     -0.004233      0.009885
      1.69535      8.58663      6.20476        -0.001802     -0.000602      0.003474
      3.27885      9.14470      8.59909        -0.001754     -0.005536      0.007452
      1.21410     13.30446      3.48422        -0.003464      0.002706      0.003064
      3.77490     16.24044      1.04314         0.000555     -0.001634     -0.001203
      8.74888     16.24005      1.39029         0.000631     -0.001738     -0.001458
      6.17912     13.30149      3.82264        -0.000450      0.000438     -0.000280
      4.43257     13.29541      0.74021        -0.000717     -0.002666      0.000817
      0.54834     16.24325      3.17732         0.001874      0.000232     -0.001861
      5.52707     16.24204      4.13567         0.000489     -0.000535     -0.002240
      9.42099     13.31155      1.68074         0.000368     -0.004251      0.000160
      1.69301     12.10772      1.25930         0.000662     -0.000827      0.003054
      3.29816     17.44828      3.70240         0.001567      0.002147     -0.002373
      8.27818     15.04249      3.61860         0.000811     -0.000386     -0.001175
      6.66568     14.49476      1.17134        -0.000124     -0.001418     -0.001153
      8.27791     17.43852      3.62018         0.001142     -0.000635     -0.002296
      6.66052     12.09366      1.17267        -0.001510     -0.002913      0.000156
      1.69409     14.50336      1.25746        -0.000901     -0.001066     -0.000162
      3.29217     15.05040      3.70264        -0.000628      0.001999     -0.000778
      1.21102     13.30654      8.37355        -0.000256     -0.001335      0.002451
      3.76996     16.24495      5.93003        -0.000371      0.000519     -0.002377
      8.74803     16.24212      6.26986         0.000889      0.000681     -0.001057
      6.18446     13.29880      8.70822        -0.002139     -0.000482      0.000395
      4.43300     13.29630      5.62247        -0.000312      0.004176      0.001690
      0.54357     16.24172      8.05920         0.001790     -0.000098     -0.000747
      5.52971     16.24114      9.01092        -0.000044     -0.000659     -0.000063
      9.41097     13.30240      6.58497        -0.000259      0.000801      0.000674
      1.67826     12.10052      6.15161        -0.001295     -0.001506      0.005845
      3.29621     17.43819      8.57706         0.001167     -0.001033     -0.002158
      8.27271     15.04228      8.49766         0.000687      0.000099     -0.001477
      6.66636     14.49373      6.05438         0.001036     -0.001289      0.000869
      8.27351     17.44119      8.49738         0.001711      0.000262     -0.001049
      6.66554     12.09381      6.04815        -0.001695     -0.001418     -0.002205
      1.68200     14.49881      6.14106         0.000315     -0.001479      0.001363
      3.29676     15.04302      8.57849         0.001361     -0.001767     -0.001132
      0.95899      1.46162      1.97230         0.002002      0.001848     -0.004908
      4.04237      4.44676      4.42937         0.004854      0.008684     -0.011188
      9.02255      4.36841      2.91699         0.008139     -0.001907     -0.001338
      5.93588      1.46527      0.45104         0.003081     -0.001402     -0.000222
      0.95133      1.46093      6.86252        -0.000774     -0.000284     -0.004473
      4.03584      4.40529      9.29038         0.002867     -0.002804     -0.001323
      9.01943      4.40960      7.78616         0.003271      0.000086      0.001688
      5.93843      1.47401      5.32821         0.002623      0.001113     -0.001311
      1.02169      7.38145      1.99846        -0.001204     -0.001633      0.004952
      4.00741     10.37390      4.47885        -0.006094      0.008347      0.008537
      8.99446     10.38564      2.91777        -0.004512     -0.004681      0.000684
      6.00240      7.34911      0.32081         0.000707     -0.012477     -0.019377
      0.94077      7.38833      6.90154         0.007674      0.000439     -0.000891
      4.02463     10.33942      9.31958        -0.005297     -0.005556      0.009813
      9.00290     10.35379      7.79314        -0.004449     -0.001189      0.004038
      5.95334      7.37303      5.36139        -0.002783     -0.004056     -0.017885
      0.95323     13.30967      1.98064        -0.001499     -0.002129      0.000578
      4.02842     16.24843      4.42582         0.002671      0.002412     -0.002380
      9.00911     16.24139      2.89409        -0.000056     -0.000882     -0.001905
      5.93384     13.29353      0.45079         0.001301     -0.001651     -0.000282
      0.94744     13.30288      6.87053        -0.003204     -0.001644      0.001172
      4.03142     16.24157      9.30210         0.001983     -0.001339     -0.002099
      9.00413     16.24188      7.77453        -0.000518      0.000130     -0.001644
      5.93463     13.29530      5.32857         0.000545      0.001960     -0.000881
      4.53810      7.87417      2.61139         0.029833      0.143848     -0.009424
 -----------------------------------------------------------------------------------
    total drift:                                0.025243     -0.018429     -0.011980


--------------------------------------------------------------------------------------------------------



  FREE ENERGIE OF THE ION-ELECTRON SYSTEM (eV)
  ---------------------------------------------------
  free  energy   TOTEN  =     -1020.01418854 eV

  energy  without entropy=    -1020.01418854  energy(sigma->0) =    -1020.01418854



--------------------------------------------------------------------------------------------------------


    POTLOK:  cpu time      0.5699: real time      0.5718


--------------------------------------------------------------------------------------------------------




--------------------------------------------------------------------------------------------------------


 writing wavefunctions
     LOOP+:  cpu time    144.9086: real time    172.1102
    4ORBIT:  cpu time      0.0000: real time      0.0000



 total charge

# of ion       s       p       d       tot
------------------------------------------
    1        0.270   6.320   5.543  12.133
    2        0.272   6.324   5.549  12.144
    3        0.271   6.324   5.548  12.143
    4        0.272   6.326   5.547  12.145
    5        0.272   6.326   5.547  12.145
    6        0.272   6.327   5.550  12.149
    7        0.271   6.324   5.549  12.144
    8        0.270   6.322   5.544  12.137
    9        0.275   6.331   5.572  12.179
   10        0.272   6.323   5.550  12.145
   11        0.270   6.322   5.546  12.138
   12        0.202   6.207   5.931  12.341
   13        0.274   6.329   5.553  12.156
   14        0.272   6.326   5.548  12.146
   15        0.270   6.320   5.546  12.136
   16        0.280   6.339   5.558  12.177
   17        0.271   6.323   5.546  12.140
   18        0.271   6.324   5.546  12.140
   19        0.271   6.324   5.545  12.140
   20        0.272   6.326   5.547  12.144
   21        0.272   6.326   5.548  12.146
   22        0.271   6.323   5.545  12.139
   23        0.271   6.323   5.545  12.139
   24        0.270   6.322   5.544  12.136
   25        1.567   3.603   0.000   5.171
   26        1.567   3.602   0.000   5.169
   27        1.566   3.602   0.000   5.168
   28        1.568   3.602   0.000   5.170
   29        1.565   3.598   0.000   5.163
   30        1.564   3.598   0.000   5.162
   31        1.565   3.600   0.000   5.165
   32        1.566   3.597   0.000   5.163
   33        1.564   3.571   0.000   5.135
   34        1.564   3.558   0.000   5.122
   35        1.565   3.567   0.000   5.132
   36        1.564   3.569   0.000   5.133
   37        1.567   3.576   0.000   5.143
   38        1.564   3.570   0.000   5.134
   39        1.564   3.569   0.000   5.133
   40        1.564   3.568   0.000   5.132
   41        1.568   3.604   0.000   5.171
   42        1.567   3.605   0.000   5.172
   43        1.568   3.605   0.000   5.174
   44        1.567   3.603   0.000   5.171
   45        1.565   3.596   0.000   5.161
   46        1.565   3.598   0.000   5.163
   47        1.566   3.596   0.000   5.162
   48        1.565   3.599   0.000   5.164
   49        1.564   3.568   0.000   5.132
   50        1.564   3.569   0.000   5.133
   51        1.564   3.569   0.000   5.133
   52        1.564   3.568   0.000   5.133
   53        1.565   3.567   0.000   5.132
   54        1.564   3.567   0.000   5.131
   55        1.564   3.569   0.000   5.133
   56        1.564   3.570   0.000   5.134
   57        1.566   3.601   0.000   5.167
   58        1.566   3.596   0.000   5.162
   59        1.566   3.602   0.000   5.169
   60        1.564   3.638   0.000   5.202
   61        1.561   3.638   0.000   5.199
   62        1.564   3.600   0.000   5.164
   63        1.565   3.594   0.000   5.159
   64        1.568   3.606   0.000   5.174
   65        1.564   3.568   0.000   5.132
   66        1.565   3.569   0.000   5.134
   67        1.568   3.573   0.000   5.140
   68        1.564   3.575   0.000   5.139
   69        1.565   3.568   0.000   5.133
   70        1.566   3.582   0.000   5.147
   71        1.564   3.565   0.000   5.129
   72        1.564   3.583   0.000   5.147
   73        1.569   3.602   0.000   5.172
   74        1.568   3.605   0.000   5.174
   75        1.568   3.604   0.000   5.172
   76        1.572   3.617   0.000   5.189
   77        1.563   3.595   0.000   5.158
   78        1.565   3.598   0.000   5.163
   79        1.566   3.597   0.000   5.163
   80        1.567   3.608   0.000   5.176
   81        1.564   3.575   0.000   5.140
   82        1.564   3.572   0.000   5.136
   83        1.565   3.567   0.000   5.131
   84        1.564   3.572   0.000   5.136
   85        1.564   3.568   0.000   5.133
   86        1.565   3.571   0.000   5.135
   87        1.564   3.574   0.000   5.138
   88        1.564   3.567   0.000   5.131
   89        1.567   3.603   0.000   5.171
   90        1.568   3.603   0.000   5.170
   91        1.567   3.604   0.000   5.171
   92        1.568   3.602   0.000   5.169
   93        1.565   3.598   0.000   5.163
   94        1.565   3.597   0.000   5.162
   95        1.565   3.599   0.000   5.164
   96        1.566   3.597   0.000   5.163
   97        1.564   3.570   0.000   5.134
   98        1.564   3.568   0.000   5.132
   99        1.564   3.569   0.000   5.134
  100        1.564   3.570   0.000   5.134
  101        1.564   3.570   0.000   5.134
  102        1.564   3.568   0.000   5.132
  103        1.564   3.570   0.000   5.134
  104        1.564   3.569   0.000   5.134
  105        1.568   3.604   0.000   5.171
  106        1.568   3.603   0.000   5.170
  107        1.568   3.604   0.000   5.171
  108        1.568   3.603   0.000   5.171
  109        1.565   3.597   0.000   5.161
  110        1.565   3.597   0.000   5.162
  111        1.565   3.598   0.000   5.164
  112        1.565   3.599   0.000   5.164
  113        1.565   3.568   0.000   5.132
  114        1.564   3.570   0.000   5.134
  115        1.564   3.568   0.000   5.132
  116        1.564   3.568   0.000   5.132
  117        1.564   3.568   0.000   5.132
  118        1.564   3.567   0.000   5.131
  119        1.564   3.569   0.000   5.133
  120        1.564   3.570   0.000   5.134
  121        0.912   1.501   0.000   2.413
  122        0.912   1.499   0.000   2.411
  123        0.913   1.503   0.000   2.416
  124        0.913   1.501   0.000   2.414
  125        0.913   1.501   0.000   2.414
  126        0.912   1.499   0.000   2.411
  127        0.913   1.504   0.000   2.418
  128        0.912   1.499   0.000   2.412
  129        0.915   1.508   0.000   2.423
  130        0.914   1.503   0.000   2.417
  131        0.913   1.504   0.000   2.416
  132        0.915   1.516   0.000   2.431
  133        0.915   1.510   0.000   2.425
  134        0.912   1.497   0.000   2.409
  135        0.913   1.504   0.000   2.417
  136        0.913   1.504   0.000   2.417
  137        0.913   1.501   0.000   2.413
  138        0.913   1.501   0.000   2.414
  139        0.912   1.501   0.000   2.413
  140        0.913   1.501   0.000   2.413
  141        0.913   1.502   0.000   2.414
  142        0.913   1.501   0.000   2.414
  143        0.912   1.501   0.000   2.413
  144        0.912   1.500   0.000   2.412
  145        0.065   6.010   0.000   6.075
--------------------------------------------------
tot        178.697 538.013 133.547 850.258



 magnetization (x)

# of ion       s       p       d       tot
------------------------------------------
    1        0.024   0.031   4.301   4.356
    2        0.024   0.032   4.297   4.352
    3        0.023   0.031   4.301   4.355
    4        0.023   0.031   4.304   4.358
    5        0.023   0.031   4.303   4.357
    6        0.023   0.031   4.301   4.356
    7        0.023   0.032   4.299   4.354
    8        0.023   0.031   4.303   4.357
    9        0.022   0.033   4.275   4.330
   10        0.024   0.032   4.294   4.350
   11        0.023   0.031   4.301   4.355
   12        0.025   0.022   3.735   3.783
   13        0.024   0.032   4.298   4.354
   14        0.024   0.031   4.302   4.357
   15        0.023   0.032   4.300   4.354
   16        0.025   0.031   4.300   4.356
   17        0.023   0.031   4.301   4.356
   18        0.023   0.031   4.303   4.358
   19        0.023   0.031   4.303   4.358
   20        0.023   0.031   4.304   4.358
   21        0.023   0.031   4.302   4.357
   22        0.023   0.031   4.303   4.357
   23        0.023   0.031   4.303   4.358
   24        0.023   0.031   4.303   4.357
   25        0.007   0.097   0.000   0.105
   26        0.007   0.094   0.000   0.101
   27        0.008   0.098   0.000   0.105
   28        0.007   0.095   0.000   0.102
   29        0.008   0.101   0.000   0.109
   30        0.008   0.109   0.000   0.117
   31        0.007   0.092   0.000   0.099
   32        0.008   0.096   0.000   0.104
   33        0.011   0.129   0.000   0.140
   34        0.010   0.117   0.000   0.127
   35        0.011   0.131   0.000   0.142
   36        0.011   0.124   0.000   0.135
   37        0.009   0.107   0.000   0.116
   38        0.011   0.125   0.000   0.136
   39        0.011   0.130   0.000   0.141
   40        0.011   0.124   0.000   0.135
   41        0.007   0.095   0.000   0.103
   42        0.007   0.093   0.000   0.101
   43        0.007   0.093   0.000   0.100
   44        0.007   0.097   0.000   0.104
   45        0.008   0.103   0.000   0.110
   46        0.008   0.104   0.000   0.111
   47        0.007   0.092   0.000   0.100
   48        0.008   0.098   0.000   0.106
   49        0.011   0.128   0.000   0.139
   50        0.011   0.131   0.000   0.143
   51        0.011   0.124   0.000   0.135
   52        0.011   0.123   0.000   0.134
   53        0.011   0.125   0.000   0.136
   54        0.011   0.127   0.000   0.139
   55        0.011   0.128   0.000   0.139
   56        0.011   0.131   0.000   0.142
   57        0.008   0.104   0.000   0.112
   58        0.007   0.088   0.000   0.095
   59        0.007   0.099   0.000   0.107
   60        0.003   0.027   0.000   0.030
   61        0.008   0.090   0.000   0.098
   62        0.008   0.113   0.000   0.121
   63        0.007   0.084   0.000   0.091
   64        0.003   0.045   0.000   0.048
   65        0.011   0.129   0.000   0.140
   66        0.011   0.122   0.000   0.133
   67        0.009   0.109   0.000   0.118
   68        0.009   0.089   0.000   0.099
   69        0.011   0.130   0.000   0.141
   70        0.010   0.094   0.000   0.104
   71        0.011   0.126   0.000   0.137
   72        0.010   0.105   0.000   0.115
   73        0.007   0.097   0.000   0.104
   74        0.007   0.091   0.000   0.098
   75        0.007   0.095   0.000   0.102
   76        0.007   0.093   0.000   0.101
   77        0.008   0.095   0.000   0.103
   78        0.008   0.105   0.000   0.112
   79        0.007   0.093   0.000   0.100
   80        0.007   0.096   0.000   0.103
   81        0.011   0.129   0.000   0.141
   82        0.012   0.127   0.000   0.139
   83        0.011   0.124   0.000   0.135
   84        0.011   0.127   0.000   0.138
   85        0.011   0.124   0.000   0.135
   86        0.011   0.125   0.000   0.137
   87        0.011   0.125   0.000   0.136
   88        0.011   0.126   0.000   0.138
   89        0.007   0.096   0.000   0.103
   90        0.007   0.096   0.000   0.103
   91        0.007   0.096   0.000   0.103
   92        0.007   0.095   0.000   0.102
   93        0.008   0.102   0.000   0.109
   94        0.008   0.100   0.000   0.108
   95        0.008   0.099   0.000   0.107
   96        0.008   0.096   0.000   0.103
   97        0.011   0.131   0.000   0.142
   98        0.011   0.127   0.000   0.138
   99        0.011   0.126   0.000   0.137
  100        0.011   0.125   0.000   0.136
  101        0.011   0.126   0.000   0.137
  102        0.011   0.124   0.000   0.135
  103        0.011   0.128   0.000   0.139
  104        0.011   0.128   0.000   0.139
  105        0.007   0.096   0.000   0.103
  106        0.007   0.096   0.000   0.103
  107        0.007   0.097   0.000   0.104
  108        0.007   0.097   0.000   0.104
  109        0.008   0.102   0.000   0.110
  110        0.008   0.101   0.000   0.109
  111        0.008   0.099   0.000   0.106
  112        0.008   0.098   0.000   0.106
  113        0.011   0.127   0.000   0.138
  114        0.011   0.127   0.000   0.139
  115        0.011   0.127   0.000   0.138
  116        0.011   0.126   0.000   0.138
  117        0.011   0.126   0.000   0.137
  118        0.011   0.122   0.000   0.133
  119        0.011   0.127   0.000   0.139
  120        0.011   0.128   0.000   0.139
  121        0.004   0.013   0.000   0.017
  122        0.004   0.012   0.000   0.016
  123        0.004   0.013   0.000   0.017
  124        0.004   0.013   0.000   0.017
  125        0.004   0.013   0.000   0.017
  126        0.004   0.012   0.000   0.016
  127        0.004   0.013   0.000   0.017
  128        0.004   0.013   0.000   0.016
  129        0.003   0.011   0.000   0.015
  130        0.003   0.012   0.000   0.015
  131        0.004   0.013   0.000   0.017
  132        0.004   0.014   0.000   0.018
  133        0.004   0.013   0.000   0.017
  134        0.003   0.012   0.000   0.016
  135        0.004   0.013   0.000   0.017
  136        0.004   0.012   0.000   0.015
  137        0.004   0.013   0.000   0.017
  138        0.004   0.013   0.000   0.017
  139        0.004   0.013   0.000   0.017
  140        0.004   0.013   0.000   0.017
  141        0.004   0.013   0.000   0.017
  142        0.004   0.013   0.000   0.017
  143        0.004   0.013   0.000   0.017
  144        0.004   0.013   0.000   0.016
  145        0.000   0.000   0.000   0.001
--------------------------------------------------
tot          1.527  11.528 102.634 115.690


 total amount of memory used by VASP MPI-rank0   264803. kBytes
=======================================================================

   base      :      30000. kBytes
   nonlr-proj:      30714. kBytes
   fftplans  :       9535. kBytes
   grid      :      26700. kBytes
   one-center:       1150. kBytes
   wavefun   :     166704. kBytes

  
  
 General timing and accounting informations for this job:
 ========================================================
  
                  Total CPU time used (sec):      204.401
                            User time (sec):      197.132
                          System time (sec):        7.269
                         Elapsed time (sec):      248.134
  
                   Maximum memory used (kb):      869864.
                   Average memory used (kb):          N/A
  
                          Minor page faults:       134730
                          Major page faults:           46
                 Voluntary context switches:       113930
