INCAR created by Atomic Simulation Environment
 ENCUT = 520.000000
 SIGMA = 0.050000
 TIME = 0.050000
 NUPDOWN = 119.000000
 EDIFF = 1.00e-06
 EDIFFG = -2.00e-02
 SYMPREC = 1.00e-07
 ALGO = all
 GGA = PE
 PREC = accurate
 IBRION = 2
 ISIF = 2
 ISMEAR = 0
 ISPIN = 2
 ISYM = 0
 KPAR = 2
 LMAXMIX = 4
 LORBIT = 12
 NELM = 300
 NELMIN = 8
 NSW = 1
 NCORE = 4
 LASPH = .TRUE.
 LCHARG = .TRUE.
 LDAU = .TRUE.
 LWAVE = .TRUE.
 LREAL = auto
 LDAUL = 2 -1 -1 -1
 LDAUU = 5.300 0.000 0.000 0.000
 LDAUJ = 0.000 0.000 0.000 0.000
 MAGMOM = 1*4.3565 1*4.3520 1*4.3525 1*4.3575 1*4.3570 1*4.3570 1*4.3535 1*4.3570 1*4.3450 1*4.3520 1*4.3525 1*3.7840 1*4.3570 1*4.3570 1*4.3535 1*4.3570 1*4.3565 2*4.3580 1*4.3575 2*4.3570 1*4.3580 1*4.3570 1*0.1035 1*0.0930 1*0.1050 1*0.1020 1*0.1080 1*0.1200 1*0.0920 1*0.1045 1*0.1400 1*0.1260 1*0.1420 1*0.1340 1*0.1165 1*0.1355 1*0.1410 1*0.1335 1*0.1030 1*0.0985 1*0.1015 1*0.1040 1*0.1085 1*0.1110 1*0.0990 1*0.1070 1*0.1390 1*0.1365 1*0.1360 1*0.1335 1*0.1365 1*0.1385 1*0.1380 1*0.1375 1*0.1110 1*0.0930 1*0.1055 1*0.0310 1*0.0970 1*0.1195 1*0.0920 1*0.0490 1*0.1420 1*0.1335 1*0.1165 1*0.1010 1*0.1420 1*0.1005 1*0.1420 1*0.1260 1*0.1050 1*0.0985 1*0.1020 1*0.0990 1*0.1050 1*0.1110 1*0.0990 1*0.1070 1*0.1380 1*0.1375 1*0.1365 1*0.1380 1*0.1360 2*0.1380 1*0.1370 3*0.1030 1*0.1015 2*0.1080 1*0.1060 1*0.1045 1*0.1410 1*0.1390 1*0.1375 1*0.1355 1*0.1375 1*0.1340 1*0.1400 1*0.1390 2*0.1030 2*0.1040 1*0.1085 1*0.1090 1*0.1060 1*0.1070 1*0.1380 1*0.1390 1*0.1380 1*0.1385 1*0.1380 1*0.1335 2*0.1390 1*0.0165 1*0.0160 1*0.0170 2*0.0165 1*0.0155 1*0.0170 1*0.0160 1*0.0150 1*0.0160 3*0.0170 1*0.0155 1*0.0170 1*0.0150 1*0.0165 2*0.0170 2*0.0165 2*0.0170 1*0.0160 1*0.0010
