 vasp.6.4.0 14Feb23 (build Mar 11 2024 14:58:30) complex                         
 executed on             epyc9004 date 2024.12.14  22:04:49
 running  192 mpi-ranks, on    2 nodes
 distrk:  each k-point on   96 cores,    2 groups
 distr:  one band on NCORE=   4 cores,   24 groups


--------------------------------------------------------------------------------------------------------


 INCAR:
   ENCUT = 520.000000
   SIGMA = 0.050000
   TIME = 0.050000
   NUPDOWN = 119.000000
   EDIFF = 1.00e-06
   EDIFFG = -2.00e-02
   SYMPREC = 1.00e-07
   ALGO = all
   GGA = PE
   PREC = accurate
   IBRION = 2
   ISIF = 2
   ISMEAR = 0
   ISPIN = 2
   ISYM = 0
   KPAR = 2
   LMAXMIX = 4
   LORBIT = 12
   NELM = 300
   NELMIN = 8
   NSW = 1
   NCORE = 4
   LASPH = .TRUE.
   LCHARG = .TRUE.
   LDAU = .TRUE.
   LWAVE = .TRUE.
   LREAL = auto
   LDAUL = 2 -1 -1 -1
   LDAUU = 5.300 0.000 0.000 0.000
   LDAUJ = 0.000 0.000 0.000 0.000
   MAGMOM = 1*4.3565 1*4.3520 1*4.3525 1*4.3575 1*4.3570 1*4.3570 1*4.3535 1*4.3570 1*4.3450 1*4.3520 1*4.3525 1*3.7840 1*4.3570 1*4.3570 1*4.3535 1*4.3570 1*4.3565 2*4.3580 1*4.3575 2*4.3570 1*4.3580 1*4.3570 1*0.1035 1*0.0930 1*0.1050 1*0.1020 1*0.1080 1*0.1200 1*0.0920 1*0.1045 1*0.1400 1*0.1260 1*0.1420 1*0.1340 1*0.1165 1*0.1355 1*0.1410 1*0.1335 1*0.1030 1*0.0985 1*0.1015 1*0.1040 1*0.1085 1*0.1110 1*0.0990 1*0.1070 1*0.1390 1*0.1365 1*0.1360 1*0.1335 1*0.1365 1*0.1385 1*0.1380 1*0.1375 1*0.1110 1*0.0930 1*0.1055 1*0.0310 1*0.0970 1*0.1195 1*0.0920 1*0.0490 1*0.1420 1*0.1335 1*0.1165 1*0.1010 1*0.1420 1*0.1005 1*0.1420 1*0.1260 1*0.1050 1*0.0985 1*0.1020 1*0.0990 1*0.1050 1*0.1110 1*0.0990 1*0.1070 1*0.1380 1*0.1375 1*0.1365 1*0.1380 1*0.1360 2*0.1380 1*0.1370 3*0.1030 1*0.1015 2*0.1080 1*0.1060 1*0.1045 1*0.1410 1*0.1390 1*0.1375 1*0.1355 1*0.1375 1*0.1340 1*0.1400 1*0.1390 2*0.1030 2*0.1040 1*0.1085 1*0.1090 1*0.1060 1*0.1070 1*0.1380 1*0.1390 1*0.1380 1*0.1385 1*0.1380 1*0.1335 2*0.1390 1*0.0165 1*0.0160 1*0.0170 2*0.0165 1*0.0155 1*0.0170 1*0.0160 1*0.0150 1*0.0160 3*0.0170 1*0.0155 1*0.0170 1*0.0150 1*0.0165 2*0.0170 2*0.0165 2*0.0170 1*0.0160 1*0.0010

 POTCAR:    PAW_PBE Fe_pv 02Aug2007               
 POTCAR:    PAW_PBE O 08Apr2002                   
 POTCAR:    PAW_PBE P 06Sep2000                   
 POTCAR:    PAW_PBE Na_pv 19Sep2006               
 -----------------------------------------------------------------------------
|                                                                             |
|           W    W    AA    RRRRR   N    N  II  N    N   GGGG   !!!           |
|           W    W   A  A   R    R  NN   N  II  NN   N  G    G  !!!           |
|           W    W  A    A  R    R  N N  N  II  N N  N  G       !!!           |
|           W WW W  AAAAAA  RRRRR   N  N N  II  N  N N  G  GGG   !            |
|           WW  WW  A    A  R   R   N   NN  II  N   NN  G    G                |
|           W    W  A    A  R    R  N    N  II  N    N   GGGG   !!!           |
|                                                                             |
|     For optimal performance we recommend to set                             |
|       NCORE = 2 up to number-of-cores-per-socket                            |
|     NCORE specifies how many cores store one orbital (NPAR=cpu/NCORE).      |
|     This setting can greatly improve the performance of VASP for DFT.       |
|     The default, NCORE=1 might be grossly inefficient on modern             |
|     multi-core architectures or massively parallel machines. Do your        |
|     own testing! More info at https://www.vasp.at/wiki/index.php/NCORE      |
|     Unfortunately you need to use the default for GW and RPA                |
|     calculations (for HF NCORE is supported but not extensively tested      |
|     yet).                                                                   |
|                                                                             |
 -----------------------------------------------------------------------------

 POTCAR:    PAW_PBE Fe_pv 02Aug2007               
   VRHFIN =Fe:  3pd7s1                                                                              
   LEXCH  = PE                                                                                      
   EATOM  =  2457.4239 eV,  180.6156 Ry                                                             
                                                                                                    
   TITEL  = PAW_PBE Fe_pv 02Aug2007                                                                 
   LULTRA =        F    use ultrasoft PP ?                                                          
   IUNSCR =        1    unscreen: 0-lin 1-nonlin 2-no                                               
   RPACOR =    1.750    partial core radius                                                         
   POMASS =   55.847; ZVAL   =   14.000    mass and valenz                                          
   RCORE  =    2.200    outmost cutoff radius                                                       
   RWIGS  =    2.200; RWIGS  =    1.164    wigner-seitz radius (au A)                               
   ENMAX  =  293.238; ENMIN  =  219.928 eV                                                          
   ICORE  =        3    local potential                                                             
   LCOR   =        T    correct aug charges                                                         
   LPAW   =        T    paw PP                                                                      
   EAUG   =  578.342                                                                                
   DEXC   =    0.000                                                                                
   RMAX   =    2.249    core radius for proj-oper                                                   
   RAUG   =    1.300    factor for augmentation sphere                                              
   RDEP   =    2.296    radius for radial grids                                                     
   RDEPT  =    1.766    core radius for aug-charge                                                  
                                                                                                    
   Atomic configuration                                                                             
    8 entries                                                                                       
     n  l   j            E        occ.                                                              
     1  0  0.50     -6993.8440   2.0000                                                             
     2  0  0.50      -814.6047   2.0000                                                             
     2  1  1.50      -693.3689   6.0000                                                             
     3  0  0.50       -89.4732   2.0000                                                             
     3  1  1.50       -55.6373   6.0000                                                             
     3  2  2.50        -3.8151   7.0000                                                             
     4  0  0.50        -4.2551   1.0000                                                             
     4  3  2.50        -1.3606   0.0000                                                             
   Description                                                                                      
     l       E           TYP  RCUT    TYP  RCUT                                                     
     1    -55.6372668     23  2.000                                                                 
     1     -5.4423304     23  2.000                                                                 
     2     -3.8151096     23  2.200                                                                 
     2     -5.1756922     23  2.200                                                                 
     0     -4.2550951     23  2.200                                                                 
     0     27.2116520     23  2.200                                                                 
     3     -1.3605826     23  2.200                                                                 
  local pseudopotential read in
  partial core-charges read in
  partial kinetic energy density read in
  atomic valenz-charges read in
  non local Contribution for L=           1  read in
    real space projection operators read in
  non local Contribution for L=           1  read in
    real space projection operators read in
  non local Contribution for L=           2  read in
    real space projection operators read in
  non local Contribution for L=           2  read in
    real space projection operators read in
  non local Contribution for L=           0  read in
    real space projection operators read in
  non local Contribution for L=           0  read in
    real space projection operators read in
    PAW grid and wavefunctions read in

   number of l-projection  operators is LMAX  =           6
   number of lm-projection operators is LMMAX =          18

 POTCAR:    PAW_PBE O 08Apr2002                   
   VRHFIN =O: s2p4                                                                                  
   LEXCH  = PE                                                                                      
   EATOM  =   432.3788 eV,   31.7789 Ry                                                             
                                                                                                    
   TITEL  = PAW_PBE O 08Apr2002                                                                     
   LULTRA =        F    use ultrasoft PP ?                                                          
   IUNSCR =        1    unscreen: 0-lin 1-nonlin 2-no                                               
   RPACOR =    1.200    partial core radius                                                         
   POMASS =   16.000; ZVAL   =    6.000    mass and valenz                                          
   RCORE  =    1.520    outmost cutoff radius                                                       
   RWIGS  =    1.550; RWIGS  =    0.820    wigner-seitz radius (au A)                               
   ENMAX  =  400.000; ENMIN  =  300.000 eV                                                          
   ICORE  =        2    local potential                                                             
   LCOR   =        T    correct aug charges                                                         
   LPAW   =        T    paw PP                                                                      
   EAUG   =  605.392                                                                                
   DEXC   =    0.000                                                                                
   RMAX   =    1.553    core radius for proj-oper                                                   
   RAUG   =    1.300    factor for augmentation sphere                                              
   RDEP   =    1.550    radius for radial grids                                                     
   RDEPT  =    1.329    core radius for aug-charge                                                  
                                                                                                    
   Atomic configuration                                                                             
    4 entries                                                                                       
     n  l   j            E        occ.                                                              
     1  0  0.50      -514.6923   2.0000                                                             
     2  0  0.50       -23.9615   2.0000                                                             
     2  1  0.50        -9.0305   4.0000                                                             
     3  2  1.50        -9.5241   0.0000                                                             
   Description                                                                                      
     l       E           TYP  RCUT    TYP  RCUT                                                     
     0    -23.9615318     23  1.200                                                                 
     0     -9.5240782     23  1.200                                                                 
     1     -9.0304911     23  1.520                                                                 
     1      8.1634956     23  1.520                                                                 
     2     -9.5240782      7  1.500                                                                 
  local pseudopotential read in
  partial core-charges read in
  partial kinetic energy density read in
  kinetic energy density of atom read in
  atomic valenz-charges read in
  non local Contribution for L=           0  read in
    real space projection operators read in
  non local Contribution for L=           0  read in
    real space projection operators read in
  non local Contribution for L=           1  read in
    real space projection operators read in
  non local Contribution for L=           1  read in
    real space projection operators read in
    PAW grid and wavefunctions read in

   number of l-projection  operators is LMAX  =           4
   number of lm-projection operators is LMMAX =           8

 POTCAR:    PAW_PBE P 06Sep2000                   
   VRHFIN =P : s2p3                                                                                 
   LEXCH  = PE                                                                                      
   EATOM  =   176.0430 eV,   12.9388 Ry                                                             
                                                                                                    
   TITEL  = PAW_PBE P 06Sep2000                                                                     
   LULTRA =        F    use ultrasoft PP ?                                                          
   IUNSCR =        1    unscreen: 0-lin 1-nonlin 2-no                                               
   RPACOR =    1.500    partial core radius                                                         
   POMASS =   30.974; ZVAL   =    5.000    mass and valenz                                          
   RCORE  =    1.900    outmost cutoff radius                                                       
   RWIGS  =    2.330; RWIGS  =    1.233    wigner-seitz radius (au A)                               
   ENMAX  =  255.040; ENMIN  =  191.280 eV                                                          
   ICORE  =        2    local potential                                                             
   LCOR   =        T    correct aug charges                                                         
   LPAW   =        T    paw PP                                                                      
   EAUG   =  342.924                                                                                
   DEXC   =    0.000                                                                                
   RMAX   =    1.935    core radius for proj-oper                                                   
   RAUG   =    1.300    factor for augmentation sphere                                              
   RDEP   =    1.931    radius for radial grids                                                     
   RDEPT  =    1.794    core radius for aug-charge                                                  
                                                                                                    
   Atomic configuration                                                                             
    6 entries                                                                                       
     n  l   j            E        occ.                                                              
     1  0  0.50     -2084.0982   2.0000                                                             
     2  0  0.50      -173.9859   2.0000                                                             
     2  1  1.50      -124.4865   6.0000                                                             
     3  0  0.50       -13.9692   2.0000                                                             
     3  1  0.50        -5.5067   3.0000                                                             
     3  2  1.50        -5.4423   0.0000                                                             
   Description                                                                                      
     l       E           TYP  RCUT    TYP  RCUT                                                     
     0    -13.9691527     23  1.900                                                                 
     0    -11.7794650     23  1.900                                                                 
     1     -5.5066937     23  1.900                                                                 
     1     -0.2556953     23  1.900                                                                 
     2     -5.4423304     23  1.900                                                                 
  local pseudopotential read in
  partial core-charges read in
  partial kinetic energy density read in
  atomic valenz-charges read in
  non local Contribution for L=           0  read in
    real space projection operators read in
  non local Contribution for L=           0  read in
    real space projection operators read in
  non local Contribution for L=           1  read in
    real space projection operators read in
  non local Contribution for L=           1  read in
    real space projection operators read in
    PAW grid and wavefunctions read in

   number of l-projection  operators is LMAX  =           4
   number of lm-projection operators is LMMAX =           8

 POTCAR:    PAW_PBE Na_pv 19Sep2006               
   VRHFIN =Na: p6s1                                                                                 
   LEXCH  = PE                                                                                      
   EATOM  =   766.0439 eV,   56.3026 Ry                                                             
                                                                                                    
   TITEL  = PAW_PBE Na_pv 19Sep2006                                                                 
   LULTRA =        F    use ultrasoft PP ?                                                          
   IUNSCR =        1    unscreen: 0-lin 1-nonlin 2-no                                               
   RPACOR =    1.800    partial core radius                                                         
   POMASS =   22.990; ZVAL   =    7.000    mass and valenz                                          
   RCORE  =    2.200    outmost cutoff radius                                                       
   RWIGS  =    2.200; RWIGS  =    1.164    wigner-seitz radius (au A)                               
   ENMAX  =  259.561; ENMIN  =  194.671 eV                                                          
   ICORE  =        2    local potential                                                             
   LCOR   =        T    correct aug charges                                                         
   LPAW   =        T    paw PP                                                                      
   EAUG   =  368.056                                                                                
   DEXC   =    0.000                                                                                
   RMAX   =    2.245    core radius for proj-oper                                                   
   RAUG   =    1.300    factor for augmentation sphere                                              
   RDEP   =    2.259    radius for radial grids                                                     
   RDEPT  =    1.738    core radius for aug-charge                                                  
                                                                                                    
   Atomic configuration                                                                             
    5 entries                                                                                       
     n  l   j            E        occ.                                                              
     1  0  0.50     -1033.6933   2.0000                                                             
     2  0  0.50       -56.7526   2.0000                                                             
     2  1  1.50       -28.6721   6.0000                                                             
     3  0  0.50        -2.7440   1.0000                                                             
     3  2  1.50        -1.3606   0.0000                                                             
   Description                                                                                      
     l       E           TYP  RCUT    TYP  RCUT                                                     
     1    -28.6720912     23  2.000                                                                 
     1      6.8029130     23  2.000                                                                 
     0     -2.7439560     23  2.200                                                                 
     0     34.0145650     23  2.200                                                                 
     2     -1.3605826     23  2.200                                                                 
  local pseudopotential read in
  partial core-charges read in
  partial kinetic energy density read in
  atomic valenz-charges read in
  non local Contribution for L=           1  read in
    real space projection operators read in
  non local Contribution for L=           1  read in
    real space projection operators read in
  non local Contribution for L=           0  read in
    real space projection operators read in
  non local Contribution for L=           0  read in
    real space projection operators read in
    PAW grid and wavefunctions read in

   number of l-projection  operators is LMAX  =           4
   number of lm-projection operators is LMMAX =           8

 Optimization of the real space projectors (new method)

 maximal supplied QI-value         = 17.01
 optimisation between [QCUT,QGAM] = [ 11.57, 23.30] = [ 37.45,152.03] Ry 
 Optimized for a Real-space Cutoff    1.45 Angstroem

   l    n(q)    QCUT    max X(q) W(low)/X(q) W(high)/X(q)  e(spline) 
   1     10    11.565     4.267    0.91E-04    0.15E-03    0.13E-06
   1     10    11.565     5.750    0.14E-03    0.22E-03    0.20E-06
   2      9    11.565    53.656    0.13E-03    0.57E-04    0.16E-06
   2      9    11.565    49.521    0.13E-03    0.59E-04    0.16E-06
   0     10    11.565    31.246    0.61E-04    0.74E-05    0.89E-07
   0     10    11.565    12.201    0.44E-04    0.68E-05    0.74E-07
 Optimization of the real space projectors (new method)

 maximal supplied QI-value         = 24.76
 optimisation between [QCUT,QGAM] = [ 11.64, 23.27] = [ 37.91,151.63] Ry 
 Optimized for a Real-space Cutoff    1.14 Angstroem

   l    n(q)    QCUT    max X(q) W(low)/X(q) W(high)/X(q)  e(spline) 
   0      8    11.635    20.381    0.10E-03    0.33E-03    0.24E-06
   0      8    11.635    15.268    0.11E-03    0.35E-03    0.26E-06
   1      7    11.635     5.964    0.24E-03    0.31E-03    0.30E-06
   1      7    11.635     5.382    0.22E-03    0.25E-03    0.26E-06
 Optimization of the real space projectors (new method)

 maximal supplied QI-value         = 19.84
 optimisation between [QCUT,QGAM] = [ 11.51, 23.22] = [ 37.09,150.92] Ry 
 Optimized for a Real-space Cutoff    1.21 Angstroem

   l    n(q)    QCUT    max X(q) W(low)/X(q) W(high)/X(q)  e(spline) 
   0      8    11.508   160.924    0.96E-04    0.17E-03    0.52E-07
   0      8    11.508   130.086    0.95E-04    0.17E-03    0.51E-07
   1      8    11.508    74.434    0.16E-03    0.74E-04    0.91E-07
   1      8    11.508    49.120    0.16E-03    0.71E-04    0.89E-07
 Optimization of the real space projectors (new method)

 maximal supplied QI-value         = 17.01
 optimisation between [QCUT,QGAM] = [ 11.57, 23.30] = [ 37.45,152.03] Ry 
 Optimized for a Real-space Cutoff    1.45 Angstroem

   l    n(q)    QCUT    max X(q) W(low)/X(q) W(high)/X(q)  e(spline) 
   1     10    11.565     4.940    0.87E-04    0.13E-03    0.13E-06
   1     10    11.565     6.253    0.13E-03    0.19E-03    0.20E-06
   0     10    11.565    37.438    0.53E-04    0.73E-05    0.79E-07
   0     10    11.565     9.606    0.27E-04    0.60E-05    0.56E-07
  PAW_PBE Fe_pv 02Aug2007               :
 energy of atom  1       EATOM=-2457.4239
 kinetic energy error for atom=    0.0062 (will be added to EATOM!!)
  PAW_PBE O 08Apr2002                   :
 energy of atom  2       EATOM= -432.3788
 kinetic energy error for atom=    0.0208 (will be added to EATOM!!)
  PAW_PBE P 06Sep2000                   :
 energy of atom  3       EATOM= -176.0430
 kinetic energy error for atom=    0.0011 (will be added to EATOM!!)
  PAW_PBE Na_pv 19Sep2006               :
 energy of atom  4       EATOM= -766.0439
 kinetic energy error for atom=    0.0019 (will be added to EATOM!!)


 POSCAR: Fe O  P  Na
  positions in cartesian coordinates
  No initial velocities read in
 exchange correlation table for  LEXCH =        8
   RHO(1)=    0.500       N(1)  =     2000
   RHO(2)=  100.500       N(2)  =     4000



--------------------------------------------------------------------------------------------------------


 ion  position               nearest neighbor table
   1  0.275  0.083  0.479-  25 1.93  45 1.94  98 2.07  40 2.10  49 2.16  55 2.17 125 2.83
   2  0.226  0.247  0.228-  30 1.93  26 1.94  39 2.06  65 2.08  40 2.14  34 2.25 122 2.85
   3  0.725  0.250  0.021-  27 1.93  47 1.96  70 2.03  36 2.08  51 2.17  53 2.18 127 2.82
   4  0.775  0.082  0.271-  28 1.94  32 1.96  35 2.03 101 2.07  38 2.17  36 2.18 124 2.83
   5  0.275  0.082  0.978-  41 1.93  29 1.94 114 2.06  56 2.07  33 2.16  39 2.16 121 2.82
   6  0.225  0.247  0.731-  42 1.93  46 1.94  55 2.06  81 2.10  56 2.14  50 2.16 126 2.81
   7  0.729  0.250  0.521-  43 1.93  31 1.97  37 2.06  86 2.09  52 2.09  35 2.22 123 2.79
   8  0.774  0.083  0.771-  44 1.93  48 1.95  51 2.08 117 2.08  52 2.16  54 2.17 128 2.82
   9  0.268  0.417  0.495-  57 1.92  77 1.95  87 2.07  81 2.07  72 2.15  34 2.15 133 2.71 145 2.78

  10  0.226  0.586  0.228-  62 1.93  58 1.94  97 2.06  71 2.08  66 2.14  72 2.25 130 2.85
  11  0.725  0.584  0.021-  59 1.93  79 1.96  68 2.03 102 2.08  85 2.17  83 2.18 135 2.82
  12  0.785  0.417  0.273-  64 1.98  60 2.02  67 2.18  37 2.18  68 2.33  70 2.33
  13  0.274  0.417  0.974-  73 1.92  61 1.93  88 2.08  50 2.08  71 2.17  65 2.17 129 2.83
  14  0.225  0.586  0.731-  74 1.93  78 1.94 113 2.06  87 2.10  82 2.14  88 2.16 134 2.81
  15  0.729  0.584  0.521-  75 1.93  63 1.97  67 2.06  84 2.09 118 2.09  69 2.22 131 2.79
  16  0.779  0.417  0.767-  76 1.89  80 1.92  53 2.10  83 2.10  84 2.15  86 2.15 136 2.79
  17  0.275  0.751  0.479-  89 1.93 109 1.94 104 2.07  66 2.10 119 2.17 113 2.17 141 2.83
  18  0.226  0.917  0.228-  90 1.93  94 1.95  33 2.07 103 2.07 104 2.17  98 2.17 138 2.82
  19  0.725  0.917  0.021-  91 1.93 111 1.95  38 2.07 100 2.07 115 2.17 117 2.17 143 2.82
  20  0.775  0.751  0.271-  92 1.94  96 1.96  69 2.03  99 2.07 100 2.17 102 2.18 140 2.83
  21  0.275  0.751  0.978- 105 1.93  93 1.94 120 2.06  82 2.07 103 2.16  97 2.16 137 2.82
  22  0.225  0.917  0.728- 106 1.93 110 1.95 119 2.07  49 2.07 114 2.17 120 2.17 142 2.83
  23  0.725  0.917  0.521- 107 1.93  95 1.95  54 2.07 116 2.07 101 2.17  99 2.17 139 2.83
  24  0.774  0.750  0.771- 108 1.93 112 1.95  85 2.08 115 2.08 118 2.16 116 2.17 144 2.82
  25  0.123  0.083  0.356- 121 1.53   1 1.93
  26  0.381  0.250  0.107- 126 1.53   2 1.94
  27  0.876  0.250  0.145- 123 1.53   3 1.93
  28  0.621  0.083  0.392- 128 1.53   4 1.94
  29  0.445  0.083  0.076- 124 1.53   5 1.94
  30  0.057  0.248  0.323- 123 1.53   2 1.93
  31  0.555  0.250  0.426- 122 1.53   7 1.97
  32  0.946  0.082  0.172- 121 1.52   4 1.96
  33  0.170  0.015  0.129- 121 1.58  18 2.07   5 2.16
  34  0.333  0.319  0.383- 122 1.59   9 2.15   2 2.25 145 2.30
  35  0.834  0.177  0.370- 123 1.58   4 2.03   7 2.22
  36  0.669  0.151  0.120- 124 1.58   3 2.08   4 2.18
  37  0.834  0.312  0.379- 123 1.56   7 2.06  12 2.18
  38  0.669  0.015  0.120- 124 1.58  19 2.07   4 2.17
  39  0.170  0.150  0.128- 121 1.58   2 2.06   5 2.16
  40  0.330  0.183  0.380- 122 1.58   1 2.10   2 2.14
  41  0.122  0.082  0.857- 125 1.53   5 1.93
  42  0.377  0.250  0.609- 122 1.52   6 1.93
  43  0.881  0.249  0.644- 127 1.52   7 1.93
  44  0.621  0.083  0.892- 124 1.53   8 1.93
  45  0.445  0.084  0.575- 128 1.53   1 1.94
  46  0.055  0.249  0.829- 127 1.53   6 1.94
  47  0.554  0.248  0.920- 126 1.52   3 1.96
  48  0.945  0.083  0.674- 125 1.53   8 1.95
  49  0.169  0.015  0.628- 125 1.58  22 2.07   1 2.16
  50  0.329  0.317  0.879- 126 1.58  13 2.08   6 2.16
  51  0.830  0.182  0.872- 127 1.58   8 2.08   3 2.17
  52  0.670  0.151  0.620- 128 1.58   7 2.09   8 2.16
  53  0.832  0.317  0.870- 127 1.58  16 2.10   3 2.18
  54  0.668  0.015  0.620- 128 1.58  23 2.07   8 2.17
  55  0.169  0.150  0.629- 125 1.58   6 2.06   1 2.17
  56  0.329  0.181  0.880- 126 1.58   5 2.07   6 2.14
  57  0.128  0.417  0.360- 129 1.53   9 1.92
  58  0.381  0.584  0.107- 134 1.53  10 1.94
  59  0.876  0.584  0.145- 131 1.53  11 1.93
  60  0.622  0.417  0.396- 136 1.52  12 2.02 145 2.15
  61  0.449  0.417  0.057- 132 1.55  13 1.93 145 2.11
  62  0.057  0.586  0.324- 131 1.53  10 1.93
  63  0.555  0.584  0.426- 130 1.53  15 1.97
  64  0.956  0.417  0.169- 129 1.50  12 1.98
  65  0.181  0.349  0.133- 129 1.59   2 2.08  13 2.17
  66  0.330  0.650  0.380- 130 1.58  17 2.10  10 2.14
  67  0.834  0.521  0.379- 131 1.56  15 2.06  12 2.18
  68  0.666  0.486  0.109- 132 1.56  11 2.03  12 2.33
  69  0.835  0.656  0.371- 131 1.58  20 2.03  15 2.22
  70  0.666  0.348  0.109- 132 1.56   3 2.03  12 2.33
  71  0.181  0.484  0.133- 129 1.59  10 2.08  13 2.17
  72  0.333  0.514  0.383- 130 1.59   9 2.15  10 2.25 145 2.31
  73  0.115  0.417  0.862- 133 1.52  13 1.92
  74  0.377  0.584  0.609- 130 1.52  14 1.93
  75  0.881  0.585  0.644- 135 1.52  15 1.93
  76  0.624  0.417  0.879- 132 1.52  16 1.89
  77  0.446  0.417  0.579- 136 1.54   9 1.95
  78  0.055  0.585  0.829- 135 1.53  14 1.94
  79  0.554  0.585  0.920- 134 1.52  11 1.96
  80  0.946  0.417  0.670- 133 1.52  16 1.92
  81  0.169  0.349  0.636- 133 1.58   9 2.07   6 2.10
  82  0.330  0.652  0.880- 134 1.58  21 2.07  14 2.14
  83  0.832  0.516  0.870- 135 1.58  16 2.10  11 2.18
  84  0.671  0.485  0.622- 136 1.58  15 2.09  16 2.15
  85  0.830  0.652  0.872- 135 1.58  24 2.08  11 2.17
  86  0.671  0.349  0.622- 136 1.58   7 2.09  16 2.15
  87  0.169  0.485  0.636- 133 1.58   9 2.07  14 2.10
  88  0.329  0.517  0.879- 134 1.58  13 2.08  14 2.16
  89  0.123  0.750  0.356- 137 1.53  17 1.93
  90  0.379  0.917  0.107- 142 1.53  18 1.93
  91  0.878  0.917  0.142- 139 1.53  19 1.93
  92  0.621  0.751  0.392- 144 1.53  20 1.94
  93  0.445  0.751  0.076- 140 1.53  21 1.94
  94  0.055  0.917  0.325- 139 1.53  18 1.95
  95  0.555  0.917  0.423- 138 1.53  23 1.95
  96  0.946  0.752  0.172- 137 1.52  20 1.96
  97  0.170  0.683  0.128- 137 1.58  10 2.06  21 2.16
  98  0.331  0.984  0.379- 138 1.58   1 2.07  18 2.17
  99  0.831  0.849  0.371- 139 1.58  20 2.07  23 2.17
 100  0.669  0.818  0.120- 140 1.58  19 2.07  20 2.17
 101  0.831  0.984  0.371- 139 1.58   4 2.07  23 2.17
 102  0.669  0.683  0.120- 140 1.58  11 2.08  20 2.18
 103  0.170  0.819  0.129- 137 1.58  18 2.07  21 2.16
 104  0.331  0.849  0.379- 138 1.58  17 2.07  18 2.17
 105  0.122  0.751  0.857- 141 1.53  21 1.93
 106  0.379  0.917  0.607- 138 1.53  22 1.93
 107  0.878  0.917  0.642- 143 1.53  23 1.93
 108  0.621  0.751  0.892- 140 1.53  24 1.93
 109  0.445  0.750  0.575- 144 1.53  17 1.94
 110  0.055  0.917  0.825- 143 1.53  22 1.95
 111  0.555  0.917  0.923- 142 1.53  19 1.95
 112  0.945  0.751  0.674- 141 1.53  24 1.95
 113  0.169  0.683  0.629- 141 1.58  14 2.06  17 2.17
 114  0.331  0.984  0.879- 142 1.58   5 2.06  22 2.17
 115  0.831  0.849  0.870- 143 1.58  24 2.08  19 2.17
 116  0.669  0.818  0.620- 144 1.58  23 2.07  24 2.17
 117  0.830  0.984  0.870- 143 1.58   8 2.08  19 2.17
 118  0.670  0.683  0.620- 144 1.58  15 2.09  24 2.16
 119  0.169  0.818  0.628- 141 1.58  22 2.07  17 2.17
 120  0.331  0.849  0.879- 142 1.58  21 2.06  22 2.17
 121  0.096  0.082  0.202-  32 1.52  25 1.53  33 1.58  39 1.58   5 2.82
 122  0.404  0.250  0.456-  42 1.52  31 1.53  40 1.58  34 1.59   2 2.85
 123  0.905  0.247  0.299-  27 1.53  30 1.53  37 1.56  35 1.58   7 2.79
 124  0.596  0.083  0.046-  44 1.53  29 1.53  36 1.58  38 1.58   4 2.83
 125  0.095  0.083  0.703-  48 1.53  41 1.53  49 1.58  55 1.58   1 2.83
 126  0.405  0.249  0.953-  47 1.52  26 1.53  56 1.58  50 1.58   6 2.81
 127  0.905  0.249  0.798-  43 1.52  46 1.53  53 1.58  51 1.58   3 2.82
 128  0.596  0.083  0.546-  28 1.53  45 1.53  52 1.58  54 1.58   8 2.82
 129  0.103  0.417  0.205-  64 1.50  57 1.53  65 1.59  71 1.59  13 2.83
 130  0.405  0.584  0.456-  74 1.52  63 1.53  66 1.58  72 1.59  10 2.85
 131  0.905  0.586  0.299-  59 1.53  62 1.53  67 1.56  69 1.58  15 2.79
 132  0.603  0.417  0.033-  76 1.52  61 1.55  70 1.56  68 1.56 145 2.84
 133  0.093  0.417  0.708-  80 1.52  73 1.52  81 1.58  87 1.58   9 2.71
 134  0.405  0.584  0.953-  79 1.52  58 1.53  82 1.58  88 1.58  14 2.81
 135  0.905  0.585  0.798-  75 1.52  78 1.53  83 1.58  85 1.58  11 2.82
 136  0.597  0.417  0.549-  60 1.52  77 1.54  86 1.58  84 1.58  16 2.79
 137  0.096  0.751  0.202-  96 1.52  89 1.53 103 1.58  97 1.58  21 2.82
 138  0.404  0.917  0.453- 106 1.53  95 1.53 104 1.58  98 1.58  18 2.82
 139  0.904  0.917  0.296-  91 1.53  94 1.53  99 1.58 101 1.58  23 2.83
 140  0.596  0.751  0.046- 108 1.53  93 1.53 102 1.58 100 1.58  20 2.83
 141  0.095  0.751  0.703- 112 1.53 105 1.53 119 1.58 113 1.58  17 2.83
 142  0.405  0.917  0.953-  90 1.53 111 1.53 114 1.58 120 1.58  22 2.83
 143  0.904  0.917  0.796- 107 1.53 110 1.53 117 1.58 115 1.58  19 2.82
 144  0.596  0.750  0.546-  92 1.53 109 1.53 118 1.58 116 1.58  24 2.82
 145  0.442  0.417  0.273-  61 2.11  60 2.15  34 2.30  72 2.31   9 2.78 132 2.84


IMPORTANT INFORMATION: All symmetrisations will be switched off!
NOSYMM: (Re-)initialisation of all symmetry stuff for point group C_1.


----------------------------------------------------------------------------------------

                                     Primitive cell                                     

  volume of cell :    1723.3780

  direct lattice vectors                    reciprocal lattice vectors
     9.962489075 -0.000069663 -0.000154526     0.100376522  0.000000553 -0.000000819
    -0.000097698 17.717656860 -0.000226836     0.000000395  0.056440872 -0.000000631
     0.000079674  0.000109170  9.763519320     0.000001589  0.000001311  0.102422084

  length of vectors
     9.962489076 17.717656862  9.763519321     0.100376522  0.056440872  0.102422084

  position of ions in fractional coordinates (direct lattice)
     0.274630264  0.082854032  0.478603915
     0.225644354  0.247432595  0.227643015
     0.724642377  0.249783875  0.021091011
     0.774890156  0.082453121  0.270731312
     0.274978807  0.082187274  0.978230400
     0.224538046  0.247389884  0.731460349
     0.728595125  0.250016698  0.521235656
     0.773839592  0.083218544  0.770784599
     0.267936744  0.416781440  0.495179779
     0.225742308  0.586128204  0.227607491
     0.724771264  0.583786974  0.021156558
     0.784531177  0.416806475  0.272811353
     0.273613611  0.416798259  0.973683274
     0.224684354  0.586140934  0.731411252
     0.728705862  0.583532493  0.521310970
     0.778524820  0.416788407  0.767403861
     0.274719959  0.750642712  0.478550736
     0.225929118  0.916764305  0.228490963
     0.725485635  0.916761445  0.020888956
     0.774982109  0.751078407  0.270785468
     0.275044815  0.751317639  0.978196621
     0.225234967  0.916760506  0.728329951
     0.725130272  0.916761198  0.521133995
     0.773960647  0.750311653  0.770852599
     0.122655047  0.082980433  0.356274387
     0.380839434  0.249875589  0.107424604
     0.875913702  0.249506028  0.145066262
     0.620790592  0.082718236  0.391571150
     0.445032749  0.082821429  0.075635560
     0.056631210  0.247859724  0.323401895
     0.554793352  0.249736999  0.426021696
     0.945930809  0.081929522  0.172068346
     0.170302836  0.014857479  0.128592684
     0.333110014  0.319142909  0.382784796
     0.834477345  0.177400766  0.370487916
     0.668756181  0.150686912  0.120188259
     0.833869364  0.312184330  0.379274705
     0.669158307  0.015184754  0.120028539
     0.170078137  0.150086105  0.127944872
     0.329686244  0.183222413  0.379909866
     0.121784556  0.082419660  0.857091991
     0.376686470  0.249764486  0.609150077
     0.880643101  0.248558650  0.643837375
     0.621067061  0.082817640  0.891977835
     0.445098995  0.083896921  0.575263478
     0.055199754  0.248595219  0.828658115
     0.554191990  0.248318302  0.920145771
     0.944849762  0.082586534  0.674046555
     0.169146795  0.015130074  0.628447525
     0.328909611  0.316613126  0.878778212
     0.830277202  0.181545010  0.871684112
     0.670171883  0.150569803  0.619906983
     0.832317127  0.317444424  0.870141427
     0.668452563  0.015235588  0.620147073
     0.168789723  0.150396415  0.629322731
     0.329409729  0.181485613  0.880214286
     0.127758665  0.416801447  0.359786856
     0.380981593  0.583721526  0.107435283
     0.876014924  0.584124255  0.145188884
     0.621973920  0.416790426  0.395674091
     0.449279840  0.416857140  0.057325671
     0.056790980  0.585672149  0.323502878
     0.554981264  0.583762754  0.425972911
     0.955870878  0.416842878  0.169305224
     0.181180719  0.349491119  0.133233522
     0.329864691  0.650290223  0.379879081
     0.834004783  0.521378741  0.379350978
     0.666113905  0.485699651  0.109223475
     0.834657200  0.656173090  0.370655493
     0.665998182  0.347880166  0.109230295
     0.181203476  0.484111789  0.133195906
     0.333255303  0.514356926  0.382728369
     0.115286931  0.416768453  0.861986639
     0.376851527  0.583777804  0.609075915
     0.880762384  0.585054929  0.643910236
     0.623813842  0.416773927  0.879433372
     0.445890447  0.416734786  0.578573304
     0.055350518  0.584936639  0.828691691
     0.554325678  0.585219417  0.920137203
     0.945520132  0.416800589  0.670255053
     0.168729278  0.348992658  0.635578783
     0.329594286  0.652087629  0.880164993
     0.832425595  0.516113462  0.870191746
     0.670995120  0.484782213  0.621566568
     0.830464211  0.652013756  0.871810184
     0.671000285  0.348761880  0.621554457
     0.168768533  0.484550321  0.635580116
     0.328973783  0.516971576  0.878787253
     0.122725750  0.750458287  0.356211401
     0.378929201  0.916768640  0.106852122
     0.878219698  0.916825099  0.142451474
     0.620916467  0.750779756  0.391645615
     0.445108452  0.750666569  0.075676210
     0.055072162  0.916827009  0.325462553
     0.554797840  0.916758336  0.423489647
     0.945955217  0.751602824  0.172034033
     0.170038582  0.683427034  0.127810696
     0.330800803  0.984469335  0.379232379
     0.830977765  0.849158538  0.370698480
     0.669208982  0.818341054  0.120095564
     0.830937111  0.984419271  0.370778743
     0.668815691  0.682842003  0.120341952
     0.170283262  0.818673474  0.128582322
     0.330751404  0.849089576  0.379285495
     0.121836382  0.751073422  0.857045712
     0.378550857  0.916801068  0.607379737
     0.878048369  0.916790828  0.642176715
     0.621192842  0.750658261  0.892061683
     0.445168045  0.749659902  0.575290378
     0.054607177  0.916796679  0.825315404
     0.555099832  0.916735857  0.922966182
     0.944927379  0.750902135  0.673969318
     0.168877560  0.683114924  0.629240475
     0.330963899  0.984346437  0.878529589
     0.830510599  0.849083839  0.870363615
     0.668562194  0.818267805  0.620224839
     0.830469360  0.984484016  0.870363121
     0.670165755  0.682927847  0.620027855
     0.169180390  0.818398929  0.628437559
     0.330924531  0.849168580  0.878551225
     0.096064218  0.082417616  0.202278584
     0.404488086  0.249873463  0.455681279
     0.904537827  0.247083003  0.298782005
     0.595763816  0.082975429  0.046204794
     0.095312539  0.082505309  0.703163108
     0.404613780  0.249308383  0.952571995
     0.904505880  0.248994633  0.798038122
     0.595998575  0.083214363  0.545747343
     0.102695523  0.416809271  0.204828039
     0.404669746  0.583624896  0.455607688
     0.904685315  0.586489793  0.298901844
     0.602678735  0.416803773  0.033253740
     0.093450061  0.416775085  0.707621929
     0.404747023  0.584263803  0.952575864
     0.904649291  0.584561037  0.798107015
     0.597488440  0.416767481  0.549299542
     0.096089948  0.751092402  0.202222146
     0.404384000  0.916780015  0.453287498
     0.904318248  0.916807044  0.296485009
     0.595838668  0.750530153  0.046283058
     0.095384900  0.750997967  0.703112355
     0.404705569  0.916758077  0.952761612
     0.903817515  0.916791836  0.796274522
     0.596074750  0.750296199  0.545816326
     0.442286520  0.416651862  0.273425994

  ion indices of the primitive-cell ions
   primitive index   ion index
                 1           1
                 2           2
                 3           3
                 4           4
                 5           5
                 6           6
                 7           7
                 8           8
                 9           9
                10          10
                11          11
                12          12
                13          13
                14          14
                15          15
                16          16
                17          17
                18          18
                19          19
                20          20
                21          21
                22          22
                23          23
                24          24
                25          25
                26          26
                27          27
                28          28
                29          29
                30          30
                31          31
                32          32
                33          33
                34          34
                35          35
                36          36
                37          37
                38          38
                39          39
                40          40
                41          41
                42          42
                43          43
                44          44
                45          45
                46          46
                47          47
                48          48
                49          49
                50          50
                51          51
                52          52
                53          53
                54          54
                55          55
                56          56
                57          57
                58          58
                59          59
                60          60
                61          61
                62          62
                63          63
                64          64
                65          65
                66          66
                67          67
                68          68
                69          69
                70          70
                71          71
                72          72
                73          73
                74          74
                75          75
                76          76
                77          77
                78          78
                79          79
                80          80
                81          81
                82          82
                83          83
                84          84
                85          85
                86          86
                87          87
                88          88
                89          89
                90          90
                91          91
                92          92
                93          93
                94          94
                95          95
                96          96
                97          97
                98          98
                99          99
               100         100
               101         101
               102         102
               103         103
               104         104
               105         105
               106         106
               107         107
               108         108
               109         109
               110         110
               111         111
               112         112
               113         113
               114         114
               115         115
               116         116
               117         117
               118         118
               119         119
               120         120
               121         121
               122         122
               123         123
               124         124
               125         125
               126         126
               127         127
               128         128
               129         129
               130         130
               131         131
               132         132
               133         133
               134         134
               135         135
               136         136
               137         137
               138         138
               139         139
               140         140
               141         141
               142         142
               143         143
               144         144
               145         145

----------------------------------------------------------------------------------------



 KPOINTS: KPOINTS created by Atomic Simulation Env

Automatic generation of k-mesh.
 Grid dimensions read from file:
 generate k-points for:    3    1    3

 Generating k-lattice:

  Cartesian coordinates                     Fractional coordinates (reciprocal lattice)
     0.033458841  0.000000184 -0.000000273     0.333333333  0.000000000 -0.000000000
     0.000000395  0.056440872 -0.000000631    -0.000000000  1.000000000  0.000000000
     0.000000530  0.000000437  0.034140695     0.000000000 -0.000000000  0.333333333

  Length of vectors
     0.033458841  0.056440872  0.034140695

  Shift w.r.t. Gamma in fractional coordinates (k-lattice)
     0.000000000  0.000000000  0.000000000

 
 Subroutine IBZKPT returns following result:
 ===========================================
 
 Found      5 irreducible k-points:
 
 Following reciprocal coordinates:
            Coordinates               Weight
  0.000000  0.000000  0.000000      1.000000
  0.333333  0.000000  0.000000      2.000000
  0.000000  0.000000  0.333333      2.000000
  0.333333  0.000000  0.333333      2.000000
 -0.333333  0.000000  0.333333      2.000000
 
 Following cartesian coordinates:
            Coordinates               Weight
  0.000000  0.000000  0.000000      1.000000
  0.033459  0.000000 -0.000000      2.000000
  0.000001  0.000000  0.034141      2.000000
  0.033459  0.000001  0.034140      2.000000
 -0.033458  0.000000  0.034141      2.000000
 


--------------------------------------------------------------------------------------------------------




 Dimension of arrays:
   k-points           NKPTS =      5   k-points in BZ     NKDIM =      5   number of bands    NBANDS=    696
   number of dos      NEDOS =    301   number of ions     NIONS =    145
   non local maximal  LDIM  =      6   non local SUM 2l+1 LMDIM =     18
   total plane-waves  NPLWV = 896000
   max r-space proj   IRMAX =   6631   max aug-charges    IRDMAX=  16019
   dimension x,y,z NGX =    80 NGY =  140 NGZ =   80
   dimension x,y,z NGXF=   160 NGYF=  280 NGZF=  160
   support grid    NGXF=   160 NGYF=  280 NGZF=  160
   ions per type =              24  96  24   1
   NGX,Y,Z   is equivalent  to a cutoff of  13.35, 13.14, 13.62 a.u.
   NGXF,Y,Z  is equivalent  to a cutoff of  26.70, 26.27, 27.24 a.u.

 SYSTEM =  unknown system                          
 POSCAR =  Fe O  P  Na                             

 Startparameter for this run:
   NWRITE =      2    write-flag & timer
   PREC   = accura    normal or accurate (medium, high low for compatibility)
   ISTART =      1    job   : 0-new  1-cont  2-samecut
   ICHARG =      0    charge: 1-file 2-atom 10-const
   ISPIN  =      2    spin polarized calculation?
   LNONCOLLINEAR =      F non collinear calculations
   LSORBIT =      F    spin-orbit coupling
   INIWAV =      1    electr: 0-lowe 1-rand  2-diag
   LASPH  =      T    aspherical Exc in radial PAW
 Electronic Relaxation 1
   ENCUT  =  520.0 eV  38.22 Ry    6.18 a.u.  18.52 32.94 18.15*2*pi/ulx,y,z
   ENINI  =  520.0     initial cutoff
   ENAUG  =  605.4 eV  augmentation charge cutoff
   NELM   =    300;   NELMIN=  8; NELMDL=  0     # of ELM steps 
   EDIFF  = 0.1E-05   stopping-criterion for ELM
   LREAL  =      T    real-space projection
   NLSPLINE    = F    spline interpolate recip. space projectors
   LCOMPAT=      F    compatible to vasp.4.4
   GGA_COMPAT  = T    GGA compatible to vasp.4.4-vasp.4.6
   LMAXPAW     = -100 max onsite density
   LMAXMIX     =    4 max onsite mixed and CHGCAR
   VOSKOWN=      0    Vosko Wilk Nusair interpolation
   ROPT   =   -0.00025  -0.00025  -0.00025  -0.00025
 Ionic relaxation
   EDIFFG = -.2E-01   stopping-criterion for IOM
   NSW    =      1    number of steps for IOM
   NBLOCK =      1;   KBLOCK =      1    inner block; outer block 
   IBRION =      2    ionic relax: 0-MD 1-quasi-New 2-CG
   NFREE  =      1    steps in history (QN), initial steepest desc. (CG)
   ISIF   =      2    stress and relaxation
   IWAVPR =     11    prediction:  0-non 1-charg 2-wave 3-comb
   ISYM   =      0    0-nonsym 1-usesym 2-fastsym
   LCORR  =      T    Harris-Foulkes like correction to forces

   POTIM  = 0.5000    time-step for ionic-motion
   TEIN   =    0.0    initial temperature
   TEBEG  =    0.0;   TEEND  =   0.0 temperature during run
   SMASS  =  -3.00    Nose mass-parameter (am)
   estimated Nose-frequenzy (Omega)   =  0.10E-29 period in steps = 0.13E+47 mass=  -0.227E-26a.u.
   SCALEE = 1.0000    scale energy and forces
   NPACO  =    256;   APACO  = 10.0  distance and # of slots for P.C.
   PSTRESS=    0.0 pullay stress

  Mass of Ions in am
   POMASS =  55.85 16.00 30.97 22.99
  Ionic Valenz
   ZVAL   =  14.00  6.00  5.00  7.00
  Atomic Wigner-Seitz radii
   RWIGS  =  -1.00 -1.00 -1.00 -1.00
  virtual crystal weights 
   VCA    =   1.00  1.00  1.00  1.00
   NELECT =    1039.0000    total number of electrons
   NUPDOWN=     119.0000    fix difference up-down

 DOS related values:
   EMIN   =  10.00;   EMAX   =-10.00  energy-range for DOS
   EFERMI =   0.00;   METHOD = LEGACY      
   ISMEAR =     0;   SIGMA  =   0.05  broadening in eV -4-tet -1-fermi 0-gaus

 Electronic relaxation 2 (details)
   IALGO  =     58    algorithm
   LDIAG  =      T    sub-space diagonalisation (order eigenvalues)
   LSUBROT=      F    optimize rotation matrix (better conditioning)
   TURBO    =      0    0=normal 1=particle mesh
   IRESTART =      0    0=no restart 2=restart with 2 vectors
   NREBOOT  =      0    no. of reboots
   NMIN     =      0    reboot dimension
   EREF     =   0.00    reference energy to select bands
   IMIX   =      4    mixing-type and parameters
     AMIX     =   0.40;   BMIX     =  1.00
     AMIX_MAG =   1.60;   BMIX_MAG =  1.00
     AMIN     =   0.10
     WC   =   100.;   INIMIX=   1;  MIXPRE=   1;  MAXMIX= -45

 Intra band minimization:
   WEIMIN = 0.0010     energy-eigenvalue tresh-hold
   EBREAK =  0.36E-09  absolut break condition
   DEPER  =   0.30     relativ break condition  

   TIME   =   0.05     timestep for ELM

  volume/ion in A,a.u.               =      11.89        80.21
  Fermi-wavevector in a.u.,A,eV,Ry     =   1.382993  2.613477 26.023433  1.912668
  Thomas-Fermi vector in A             =   2.507632

 Write flags
   LWAVE        =      T    write WAVECAR
   LDOWNSAMPLE  =      F    k-point downsampling of WAVECAR
   LCHARG       =      T    write CHGCAR
   LVTOT        =      F    write LOCPOT, total local potential
   LVHAR        =      F    write LOCPOT, Hartree potential only
   LELF         =      F    write electronic localiz. function (ELF)
   LORBIT       =     12    0 simple, 1 ext, 2 COOP (PROOUT), +10 PAW based schemes


 Dipole corrections
   LMONO  =      F    monopole corrections only (constant potential shift)
   LDIPOL =      F    correct potential (dipole corrections)
   IDIPOL =      0    1-x, 2-y, 3-z, 4-all directions 
   EPSILON=  1.0000000 bulk dielectric constant

 LDA+U is selected, type is set to LDAUTYPE =  2
   angular momentum for each species LDAUL =     2   -1   -1   -1
   U (eV)           for each species LDAUU =   5.3  0.0  0.0  0.0
   J (eV)           for each species LDAUJ =   0.0  0.0  0.0  0.0
 Exchange correlation treatment:
   GGA     =    PE    GGA type
   LEXCH   =     8    internal setting for exchange type
   LIBXC   =     F    Libxc                    
   VOSKOWN =     0    Vosko Wilk Nusair interpolation
   LHFCALC =     F    Hartree Fock is set to
   LHFONE  =     F    Hartree Fock one center treatment
   AEXX    =    0.0000 exact exchange contribution

 Linear response parameters
   LEPSILON=     F    determine dielectric tensor
   LRPA    =     F    only Hartree local field effects (RPA)
   LNABLA  =     F    use nabla operator in PAW spheres
   LVEL    =     F    velocity operator in full k-point grid
   CSHIFT  =0.1000    complex shift for real part using Kramers Kronig
   OMEGAMAX=  -1.0    maximum frequency
   DEG_THRESHOLD= 0.2000000E-02 threshold for treating states as degnerate
   RTIME   =   -0.100 relaxation time in fs
  (WPLASMAI=    0.000 imaginary part of plasma frequency in eV, 0.658/RTIME)
   DFIELD  = 0.0000000 0.0000000 0.0000000 field for delta impulse in time

  Optional k-point grid parameters
   LKPOINTS_OPT  =     F    use optional k-point grid
   KPOINTS_OPT_MODE=     1    mode for optional k-point grid

 Orbital magnetization related:
   ORBITALMAG=     F  switch on orbital magnetization
   LCHIMAG   =     F  perturbation theory with respect to B field
   DQ        =  0.001000  dq finite difference perturbation B field
   LLRAUG    =     F  two centre corrections for induced B field
   LBONE     =     F  B-component reconstruction in AE one-centre
   LVGVCALC  =     T  calculate vGv susceptibility
   LVGVAPPL  =     F  apply vGv susceptibility instead of pGv for G=0

 Random number generation:
   RANDOM_GENERATOR = DEFAULT
   PCG_SEED         = not used


--------------------------------------------------------------------------------------------------------


 conjugate gradient relaxation of ions
 charge density and potential will be updated during run
 spin polarized calculation
 Conjugate gradient for all bands (Freysoldt, et al. PRB 79, 241103 (2009))
 preconditioned conjugated gradient                                        
 perform sub-space diagonalisation
    before iterative eigenvector-optimisation
 modified Broyden-mixing scheme, WC =      100.0
 initial mixing is a Kerker type mixing with AMIX =  0.4000 and BMIX =      1.0000
 Hartree-type preconditioning will be used
 using additional bands          176
 real space projection scheme for non local part
 use partial core corrections
 no Harris-corrections to forces 
 use gradient corrections 
 use of overlap-Matrix (Vanderbilt PP)
 Gauss-broadening in eV      SIGMA  =   0.05


--------------------------------------------------------------------------------------------------------


  energy-cutoff  :      520.00
  volume of cell :     1723.38
      direct lattice vectors                 reciprocal lattice vectors
     9.962489075 -0.000069663 -0.000154526     0.100376522  0.000000553 -0.000000819
    -0.000097698 17.717656860 -0.000226836     0.000000395  0.056440872 -0.000000631
     0.000079674  0.000109170  9.763519320     0.000001589  0.000001311  0.102422084

  length of vectors
     9.962489076 17.717656862  9.763519321     0.100376522  0.056440872  0.102422084



 old parameters found on file WAVECAR:
  energy-cutoff  :      520.00
  volume of cell :     1723.38
      direct lattice vectors                 reciprocal lattice vectors
     9.962489075 -0.000069663 -0.000154526     0.100376522  0.000000553 -0.000000819
    -0.000097698 17.717656860 -0.000226836     0.000000395  0.056440872 -0.000000631
     0.000079674  0.000109170  9.763519320     0.000001589  0.000001311  0.102422084

  length of vectors


 k-points in units of 2pi/SCALE and weight: KPOINTS created by Atomic Simulation Env
   0.00000000  0.00000000  0.00000000       0.111
   0.03345884  0.00000018 -0.00000027       0.222
   0.00000053  0.00000044  0.03414069       0.222
   0.03345937  0.00000062  0.03414042       0.222
  -0.03345831  0.00000025  0.03414097       0.222

 k-points in reciprocal lattice and weights: KPOINTS created by Atomic Simulation Env
   0.00000000  0.00000000  0.00000000       0.111
   0.33333333  0.00000000  0.00000000       0.222
   0.00000000  0.00000000  0.33333333       0.222
   0.33333333  0.00000000  0.33333333       0.222
  -0.33333333  0.00000000  0.33333333       0.222

 position of ions in fractional coordinates (direct lattice) 
   0.27463026  0.08285403  0.47860392
   0.22564435  0.24743260  0.22764301
   0.72464238  0.24978387  0.02109101
   0.77489016  0.08245312  0.27073131
   0.27497881  0.08218727  0.97823040
   0.22453805  0.24738988  0.73146035
   0.72859512  0.25001670  0.52123566
   0.77383959  0.08321854  0.77078460
   0.26793674  0.41678144  0.49517978
   0.22574231  0.58612820  0.22760749
   0.72477126  0.58378697  0.02115656
   0.78453118  0.41680647  0.27281135
   0.27361361  0.41679826  0.97368327
   0.22468435  0.58614093  0.73141125
   0.72870586  0.58353249  0.52131097
   0.77852482  0.41678841  0.76740386
   0.27471996  0.75064271  0.47855074
   0.22592912  0.91676431  0.22849096
   0.72548564  0.91676145  0.02088896
   0.77498211  0.75107841  0.27078547
   0.27504481  0.75131764  0.97819662
   0.22523497  0.91676051  0.72832995
   0.72513027  0.91676120  0.52113400
   0.77396065  0.75031165  0.77085260
   0.12265505  0.08298043  0.35627439
   0.38083943  0.24987559  0.10742460
   0.87591370  0.24950603  0.14506626
   0.62079059  0.08271824  0.39157115
   0.44503275  0.08282143  0.07563556
   0.05663121  0.24785972  0.32340189
   0.55479335  0.24973700  0.42602170
   0.94593081  0.08192952  0.17206835
   0.17030284  0.01485748  0.12859268
   0.33311001  0.31914291  0.38278480
   0.83447735  0.17740077  0.37048792
   0.66875618  0.15068691  0.12018826
   0.83386936  0.31218433  0.37927471
   0.66915831  0.01518475  0.12002854
   0.17007814  0.15008611  0.12794487
   0.32968624  0.18322241  0.37990987
   0.12178456  0.08241966  0.85709199
   0.37668647  0.24976449  0.60915008
   0.88064310  0.24855865  0.64383738
   0.62106706  0.08281764  0.89197784
   0.44509899  0.08389692  0.57526348
   0.05519975  0.24859522  0.82865811
   0.55419199  0.24831830  0.92014577
   0.94484976  0.08258653  0.67404656
   0.16914679  0.01513007  0.62844753
   0.32890961  0.31661313  0.87877821
   0.83027720  0.18154501  0.87168411
   0.67017188  0.15056980  0.61990698
   0.83231713  0.31744442  0.87014143
   0.66845256  0.01523559  0.62014707
   0.16878972  0.15039642  0.62932273
   0.32940973  0.18148561  0.88021429
   0.12775867  0.41680145  0.35978686
   0.38098159  0.58372153  0.10743528
   0.87601492  0.58412426  0.14518888
   0.62197392  0.41679043  0.39567409
   0.44927984  0.41685714  0.05732567
   0.05679098  0.58567215  0.32350288
   0.55498126  0.58376275  0.42597291
   0.95587088  0.41684288  0.16930522
   0.18118072  0.34949112  0.13323352
   0.32986469  0.65029022  0.37987908
   0.83400478  0.52137874  0.37935098
   0.66611391  0.48569965  0.10922347
   0.83465720  0.65617309  0.37065549
   0.66599818  0.34788017  0.10923030
   0.18120348  0.48411179  0.13319591
   0.33325530  0.51435693  0.38272837
   0.11528693  0.41676845  0.86198664
   0.37685153  0.58377780  0.60907591
   0.88076238  0.58505493  0.64391024
   0.62381384  0.41677393  0.87943337
   0.44589045  0.41673479  0.57857330
   0.05535052  0.58493664  0.82869169
   0.55432568  0.58521942  0.92013720
   0.94552013  0.41680059  0.67025505
   0.16872928  0.34899266  0.63557878
   0.32959429  0.65208763  0.88016499
   0.83242560  0.51611346  0.87019175
   0.67099512  0.48478221  0.62156657
   0.83046421  0.65201376  0.87181018
   0.67100028  0.34876188  0.62155446
   0.16876853  0.48455032  0.63558012
   0.32897378  0.51697158  0.87878725
   0.12272575  0.75045829  0.35621140
   0.37892920  0.91676864  0.10685212
   0.87821970  0.91682510  0.14245147
   0.62091647  0.75077976  0.39164562
   0.44510845  0.75066657  0.07567621
   0.05507216  0.91682701  0.32546255
   0.55479784  0.91675834  0.42348965
   0.94595522  0.75160282  0.17203403
   0.17003858  0.68342703  0.12781070
   0.33080080  0.98446934  0.37923238
   0.83097776  0.84915854  0.37069848
   0.66920898  0.81834105  0.12009556
   0.83093711  0.98441927  0.37077874
   0.66881569  0.68284200  0.12034195
   0.17028326  0.81867347  0.12858232
   0.33075140  0.84908958  0.37928550
   0.12183638  0.75107342  0.85704571
   0.37855086  0.91680107  0.60737974
   0.87804837  0.91679083  0.64217671
   0.62119284  0.75065826  0.89206168
   0.44516805  0.74965990  0.57529038
   0.05460718  0.91679668  0.82531540
   0.55509983  0.91673586  0.92296618
   0.94492738  0.75090213  0.67396932
   0.16887756  0.68311492  0.62924047
   0.33096390  0.98434644  0.87852959
   0.83051060  0.84908384  0.87036361
   0.66856219  0.81826781  0.62022484
   0.83046936  0.98448402  0.87036312
   0.67016576  0.68292785  0.62002785
   0.16918039  0.81839893  0.62843756
   0.33092453  0.84916858  0.87855123
   0.09606422  0.08241762  0.20227858
   0.40448809  0.24987346  0.45568128
   0.90453783  0.24708300  0.29878201
   0.59576382  0.08297543  0.04620479
   0.09531254  0.08250531  0.70316311
   0.40461378  0.24930838  0.95257200
   0.90450588  0.24899463  0.79803812
   0.59599857  0.08321436  0.54574734
   0.10269552  0.41680927  0.20482804
   0.40466975  0.58362490  0.45560769
   0.90468532  0.58648979  0.29890184
   0.60267873  0.41680377  0.03325374
   0.09345006  0.41677509  0.70762193
   0.40474702  0.58426380  0.95257586
   0.90464929  0.58456104  0.79810701
   0.59748844  0.41676748  0.54929954
   0.09608995  0.75109240  0.20222215
   0.40438400  0.91678001  0.45328750
   0.90431825  0.91680704  0.29648501
   0.59583867  0.75053015  0.04628306
   0.09538490  0.75099797  0.70311236
   0.40470557  0.91675808  0.95276161
   0.90381751  0.91679184  0.79627452
   0.59607475  0.75029620  0.54581633
   0.44228652  0.41665186  0.27342599

 position of ions in cartesian coordinates  (Angst):
   2.73603104  1.46801243  4.67279734
   2.24797337  4.38393495  2.22250598
   7.21921904  4.42553680  0.20575385
   7.71984823  1.46085168  2.64315195
   2.73954327  1.45625355  9.55091027
   2.23699194  4.38323329  7.14153643
   7.25863807  4.42971622  5.08892510
   7.70942177  1.47446785  7.52543186
   2.66931561  7.38442593  4.83456140
   2.24891615 10.38482751  2.22208230
   7.22047045 10.34328910  0.20631804
   7.81586429  7.38480923  2.66338314
   2.72590947  7.38477576  9.50643864
   2.23841643 10.38510814  7.14098021
   7.25970872 10.33883463  5.08958475
   7.75606544  7.38454353  7.49234758
   2.73685938 13.29966310  4.67212663
   2.25074501 16.24292459  2.23063307
   7.22755481 16.24281645  0.20362967
   7.72069899 13.30732506  2.64352902
   2.74013550 13.31167576  9.55042868
   2.24386936 16.24291190  7.11082079
   7.22405437 16.24286670  5.08778182
   7.71056260 13.29379465  7.52594445
   1.22196984  1.47024919  3.47845408
   3.79409285  4.42719514  1.04872666
   8.72626786  4.42061701  1.41616530
   6.18464261  1.46557283  3.82299780
   4.43363184  1.46737891  0.73838170
   0.56418936  4.39152489  3.15747567
   5.52713226  4.42476232  4.15932868
   9.42383105  1.45155205  1.67982787
   1.69664894  0.26324189  1.25548747
   3.31860419  5.65448314  3.73720289
   8.31348362  3.14310821  3.61709674
   6.66247100  2.66978553  1.17332287
   8.30741414  5.53115815  3.70285625
   6.66649040  0.26900475  1.17179411
   1.69439711  2.65917623  1.24913190
   3.28450797  3.24629036  3.70916481
   1.21333755  1.46036834  8.36819670
   3.75275898  4.42528172  5.94733368
   8.77342429  4.40388580  6.28592619
   6.18743678  1.46738864  8.70872807
   4.43433151  1.48648866  5.61650827
   0.54996868  4.40461142  8.09055459
   5.52118069  4.39968031  8.98371905
   9.41310106  1.46324764  6.58090183
   1.68517169  0.26812628  6.13582998
   3.27679749  5.60971575  8.57984540
   8.27167927  3.21658952  8.51053518
   6.67661475  2.66776509  6.05233610
   8.29198860  5.62440839  8.49544201
   6.65949928  0.26996006  6.05471118
   1.68160122  2.66472902  6.14434444
   3.28179323  3.21557297  8.59389712
   1.27278225  7.38477539  3.51267163
   3.79547649 10.34216289  1.04875518
   8.72724361 10.34926794  1.41728660
   6.19639919  7.38454961  3.86298098
   4.47590934  7.38570673  0.55953632
   0.56574808 10.37676953  3.15838497
   5.52897169 10.34291600  4.15877657
   9.52282594  7.38543097  1.65277257
   1.80498740  6.19216564  1.30072079
   3.28624011 11.52163752  3.70875826
   8.30874283  9.23759294  3.70355346
   6.63611376  8.60542527  1.06619240
   8.31522867 11.62583197  3.61862425
   6.63497432  6.16358695  1.06629027
   1.80520096  8.57732847  1.30032299
   3.32003256  9.11321809  3.73660765
   1.14857275  7.38424652  8.41591085
   3.75437072 10.34321506  5.94653380
   8.77457978 10.36581141  6.28656122
   6.21476794  7.38430998  8.58617378
   4.44218409  7.38359603  5.64874820
   0.55143781 10.36379327  8.09080610
   5.52247965 10.36877865  8.98355895
   9.41974667  7.38473712  6.54380750
   1.68098014  6.18338979  6.20538049
   3.28358589 11.55353798  8.59330906
   8.29304981  9.14435823  8.49588822
   6.68478372  8.58922602  6.06846354
   8.27349639 11.55219332  8.51165934
   6.68484845  6.17926442  6.06837616
   1.68135796  8.58515395  6.20536275
   3.27741723  9.15959802  8.57988822
   1.22260901 13.29639275  3.47768770
   3.77499698 16.24297746  1.04298624
   8.74917593 16.24394688  1.39048404
   6.18583138 13.30205760  3.82357328
   4.43432078 13.30002994  0.73862708
   0.54859217 16.24405805  3.17744345
   5.52711159 16.24281720  4.13445567
   9.42400879 13.31659381  1.67934094
   1.69395092 12.10872779  1.24770090
   3.29553342 17.44250823  3.70236823
   8.27855348 15.04508218  3.61900074
   6.66691679 14.49905247  1.17226632
   8.27813526 17.44158544  3.61975372
   6.66301189 12.09832684  1.17470273
   1.69637540 14.50497787  1.25520397
   3.29505451 15.04389612  3.70291755
   1.21378853 13.30734624  8.36759317
   3.77126760 16.24360667  5.92989734
   8.74750888 16.24339425  6.26956112
   6.18862464 13.29995959  8.70939521
   4.43495438 13.28224869  5.61661988
   0.54399959 16.24357526  8.05776649
   5.53015999 16.24247344  9.01110442
   9.41380903 13.30423411  6.57999611
   1.68242424 12.10325275  6.14342048
   3.29719805 17.44038526  8.57726618
   8.27393916 15.04381327  8.49749103
   6.66051302 14.49780933  6.05528828
   8.27351509 17.44278715  8.49745550
   6.67650170 12.09990226  6.05339547
   1.68542790 14.50016821  6.13555047
   3.29681906 15.04535037  8.57750810
   0.95704678  1.46026244  1.97491732
   4.02972003  4.42719384  4.44893379
   9.01144789  4.37770147  2.91696806
   5.93528608  1.47009373  0.45101052
   0.94959809  1.46187088  6.86531315
   4.03101190  4.41723618  9.30033600
   9.01116921  4.41162557  7.79146437
   5.93766464  1.47438158  5.32830375
   1.02307862  7.38489885  1.99973210
   4.03149720 10.34048719  4.44813955
   9.01288408 10.39119451  2.91806109
   6.00414224  7.38474788  0.32448586
   0.93101087  7.38434869  6.90877140
   4.03230661 10.35186137  9.30029778
   9.01256515 10.35707598  7.79206087
   5.95247511  7.38416157  5.36290983
   0.95723779 13.30761283  1.97421460
   4.02861773 16.24321503  4.42541080
   9.00919472 16.24364199  2.89438941
   5.93596658 13.29759926  0.45162321
   0.95025367 13.30599440  6.86466597
   4.03186115 16.24288085  9.30203591
   9.00424599 16.24342714  7.77409405
   5.93835836 13.29350866  5.32882594
   4.40625570  7.38209376  2.66943711



--------------------------------------------------------------------------------------------------------


 k-point   1 :   0.0000 0.0000 0.0000  plane waves:   46385
 k-point   2 :   0.3333 0.0000 0.0000  plane waves:   46400
 k-point   3 :   0.0000 0.0000 0.3333  plane waves:   46458
 k-point   4 :   0.3333 0.0000 0.3333  plane waves:   46379
 k-point   5 :  -0.3333 0.0000 0.3333  plane waves:   46380

 maximum and minimum number of plane-waves per node :     11622    11582

 maximum number of plane-waves:     46458
 maximum index in each direction: 
   IXMAX=   18   IYMAX=   32   IZMAX=   18
   IXMIN=  -18   IYMIN=  -32   IZMIN=  -18


 real space projection operators:
  total allocation   :      46434.75 KBytes
  max/ min on nodes  :      11703.38      11534.00


 parallel 3D FFT for wavefunctions:
    minimum data exchange during FFTs selected (reduces bandwidth)
 parallel 3D FFT for charge:
    minimum data exchange during FFTs selected (reduces bandwidth)


 total amount of memory used by VASP MPI-rank0   264807. kBytes
=======================================================================

   base      :      30000. kBytes
   nonlr-proj:      30718. kBytes
   fftplans  :       9535. kBytes
   grid      :      26700. kBytes
   one-center:       1150. kBytes
   wavefun   :     166704. kBytes

     INWAV:  cpu time     17.3818: real time     33.7212
 Broyden mixing: mesh for mixing (old mesh)
   NGX = 37   NGY = 65   NGZ = 37
  (NGX  =160   NGY  =280   NGZ  =160)
  gives a total of  88985 points

 charge density for first step will be calculated from the start-wavefunctions


--------------------------------------------------------------------------------------------------------


 Maximum index for non-local projection operator         1630
 Maximum index for augmentation-charges          752 (set IRDMAX)


--------------------------------------------------------------------------------------------------------


 initial charge from wavefunction
 First call to EWALD:  gamma=   0.148
 Maximum number of real-space cells 3x 2x 3
 Maximum number of reciprocal cells 2x 4x 2

    FEWALD:  cpu time      0.0366: real time      0.0368


--------------------------------------- Ionic step        1  -------------------------------------------




--------------------------------------- Iteration      1(   1)  ---------------------------------------


    POTLOK:  cpu time      0.1126: real time      0.1131
    SETDIJ:  cpu time      0.4475: real time      0.4496
    TRIAL :  cpu time      7.4877: real time      7.5278
    CORREC:  cpu time     13.2301: real time     13.3004
    CHARGE:  cpu time      0.2592: real time      0.2614
    --------------------------------------------
      LOOP:  cpu time     21.5905: real time     21.7064

 eigenvalue-minimisations  :     0
 total energy-change (2. order) :-0.1020000E+04  (-0.8071833E-05)
 number of electron    1039.0000177 magnetization     119.0000068
 augmentation part      257.3724253 magnetization      80.8967303

 Free energy of the ion-electron system (eV)
  ---------------------------------------------------
  alpha Z        PSCENC =      2952.23721804
  Ewald energy   TEWEN  =    -62481.55796075
  -Hartree energ DENC   =    -37479.06145647
  -exchange      EXHF   =         0.00000000
  -V(xc)+E(xc)   XCENC  =      4604.19023153
  PAW double counting   =    159677.43141124  -161749.26127698
  entropy T*S    EENTRO =        -0.00000000
  eigenvalues    EBANDS =    -12019.41917667
  atomic energy  EATOM  =    105475.44126576
  ---------------------------------------------------
  free energy    TOTEN  =     -1019.99974430 eV

  energy without entropy =    -1019.99974430  energy(sigma->0) =    -1019.99974430


--------------------------------------------------------------------------------------------------------




--------------------------------------- Iteration      1(   2)  ---------------------------------------


    POTLOK:  cpu time      0.1109: real time      0.1116
    SETDIJ:  cpu time      0.4430: real time      0.4445
    TRIAL :  cpu time      7.3938: real time      7.4315
    CORREC:  cpu time     13.2239: real time     13.2917
    CHARGE:  cpu time      0.2590: real time      0.2612
    --------------------------------------------
      LOOP:  cpu time     21.4327: real time     21.5538

 eigenvalue-minimisations  :     0
 total energy-change (2. order) :-0.1668186E-04  (-0.2890041E-06)
 number of electron    1039.0000177 magnetization     119.0000068
 augmentation part      257.3724387 magnetization      80.8967407

 Free energy of the ion-electron system (eV)
  ---------------------------------------------------
  alpha Z        PSCENC =      2952.23721804
  Ewald energy   TEWEN  =    -62481.55796075
  -Hartree energ DENC   =    -37479.05399773
  -exchange      EXHF   =         0.00000000
  -V(xc)+E(xc)   XCENC  =      4604.19022386
  PAW double counting   =    159677.46274765  -161749.29183887
  entropy T*S    EENTRO =        -0.00000000
  eigenvalues    EBANDS =    -12019.42741894
  atomic energy  EATOM  =    105475.44126576
  ---------------------------------------------------
  free energy    TOTEN  =     -1019.99976098 eV

  energy without entropy =    -1019.99976098  energy(sigma->0) =    -1019.99976098


--------------------------------------------------------------------------------------------------------




--------------------------------------- Iteration      1(   3)  ---------------------------------------


    POTLOK:  cpu time      0.1081: real time      0.1086
    SETDIJ:  cpu time      0.4527: real time      0.4543
    TRIAL :  cpu time      7.3866: real time      7.4247
    CORREC:  cpu time      3.3353: real time      3.3522
    CHARGE:  cpu time      0.2557: real time      0.2583
    --------------------------------------------
      LOOP:  cpu time     11.5392: real time     11.5987

 eigenvalue-minimisations  :     0
 total energy-change (2. order) :-0.1074326E-04  (-0.1464129E-05)
 number of electron    1039.0000177 magnetization     119.0000068
 augmentation part      257.3724401 magnetization      80.8967371

 Free energy of the ion-electron system (eV)
  ---------------------------------------------------
  alpha Z        PSCENC =      2952.23721804
  Ewald energy   TEWEN  =    -62481.55796075
  -Hartree energ DENC   =    -37479.04978185
  -exchange      EXHF   =         0.00000000
  -V(xc)+E(xc)   XCENC  =      4604.19040529
  PAW double counting   =    159677.61094894  -161749.44090188
  entropy T*S    EENTRO =        -0.00000000
  eigenvalues    EBANDS =    -12019.43096528
  atomic energy  EATOM  =    105475.44126576
  ---------------------------------------------------
  free energy    TOTEN  =     -1019.99977173 eV

  energy without entropy =    -1019.99977173  energy(sigma->0) =    -1019.99977173


--------------------------------------------------------------------------------------------------------




--------------------------------------- Iteration      1(   4)  ---------------------------------------


    POTLOK:  cpu time      0.1075: real time      0.1080
    SETDIJ:  cpu time      0.4450: real time      0.4464
    TRIAL :  cpu time      7.3799: real time      7.4174
    CORREC:  cpu time      3.3274: real time      3.3444
    CHARGE:  cpu time      0.2566: real time      0.2588
    --------------------------------------------
      LOOP:  cpu time     11.5170: real time     11.5756

 eigenvalue-minimisations  :     0
 total energy-change (2. order) :-0.1464810E-05  (-0.8852482E-06)
 number of electron    1039.0000177 magnetization     119.0000068
 augmentation part      257.3724358 magnetization      80.8967339

 Free energy of the ion-electron system (eV)
  ---------------------------------------------------
  alpha Z        PSCENC =      2952.23721804
  Ewald energy   TEWEN  =    -62481.55796075
  -Hartree energ DENC   =    -37479.05081450
  -exchange      EXHF   =         0.00000000
  -V(xc)+E(xc)   XCENC  =      4604.19040934
  PAW double counting   =    159677.69569147  -161749.52564203
  entropy T*S    EENTRO =        -0.00000000
  eigenvalues    EBANDS =    -12019.42994053
  atomic energy  EATOM  =    105475.44126576
  ---------------------------------------------------
  free energy    TOTEN  =     -1019.99977319 eV

  energy without entropy =    -1019.99977319  energy(sigma->0) =    -1019.99977319


--------------------------------------------------------------------------------------------------------




--------------------------------------- Iteration      1(   5)  ---------------------------------------


    POTLOK:  cpu time      0.1072: real time      0.1077
    SETDIJ:  cpu time      0.4465: real time      0.4480
    TRIAL :  cpu time      7.3830: real time      7.4204
    CORREC:  cpu time      3.3113: real time      3.3283
    CHARGE:  cpu time      0.2556: real time      0.2585
    --------------------------------------------
      LOOP:  cpu time     11.5043: real time     11.5637

 eigenvalue-minimisations  :     0
 total energy-change (2. order) :-0.9071664E-06  (-0.4050108E-06)
 number of electron    1039.0000177 magnetization     119.0000068
 augmentation part      257.3724317 magnetization      80.8967331

 Free energy of the ion-electron system (eV)
  ---------------------------------------------------
  alpha Z        PSCENC =      2952.23721804
  Ewald energy   TEWEN  =    -62481.55796075
  -Hartree energ DENC   =    -37479.05222160
  -exchange      EXHF   =         0.00000000
  -V(xc)+E(xc)   XCENC  =      4604.19038484
  PAW double counting   =    159677.76047299  -161749.59010050
  entropy T*S    EENTRO =        -0.00000000
  eigenvalues    EBANDS =    -12019.42883287
  atomic energy  EATOM  =    105475.44126576
  ---------------------------------------------------
  free energy    TOTEN  =     -1019.99977410 eV

  energy without entropy =    -1019.99977410  energy(sigma->0) =    -1019.99977410


--------------------------------------------------------------------------------------------------------




--------------------------------------- Iteration      1(   6)  ---------------------------------------


    POTLOK:  cpu time      0.1079: real time      0.1084
    SETDIJ:  cpu time      0.4450: real time      0.4465
    TRIAL :  cpu time      7.3816: real time      7.4194
    CORREC:  cpu time      3.3124: real time      3.3288
    CHARGE:  cpu time      0.2574: real time      0.2596
    --------------------------------------------
      LOOP:  cpu time     11.5050: real time     11.5635

 eigenvalue-minimisations  :     0
 total energy-change (2. order) :-0.4158937E-06  (-0.2937430E-06)
 number of electron    1039.0000177 magnetization     119.0000068
 augmentation part      257.3724324 magnetization      80.8967312

 Free energy of the ion-electron system (eV)
  ---------------------------------------------------
  alpha Z        PSCENC =      2952.23721804
  Ewald energy   TEWEN  =    -62481.55796075
  -Hartree energ DENC   =    -37479.05233745
  -exchange      EXHF   =         0.00000000
  -V(xc)+E(xc)   XCENC  =      4604.19037161
  PAW double counting   =    159677.77047018  -161749.59988869
  entropy T*S    EENTRO =        -0.00000000
  eigenvalues    EBANDS =    -12019.42891321
  atomic energy  EATOM  =    105475.44126576
  ---------------------------------------------------
  free energy    TOTEN  =     -1019.99977451 eV

  energy without entropy =    -1019.99977451  energy(sigma->0) =    -1019.99977451


--------------------------------------------------------------------------------------------------------




--------------------------------------- Iteration      1(   7)  ---------------------------------------


    POTLOK:  cpu time      0.1068: real time      0.1073
    SETDIJ:  cpu time      0.4434: real time      0.4449
    TRIAL :  cpu time      7.3915: real time      7.4297
    CORREC:  cpu time      3.3131: real time      3.3298
    CHARGE:  cpu time      0.2566: real time      0.2588
    --------------------------------------------
      LOOP:  cpu time     11.5133: real time     11.5836

 eigenvalue-minimisations  :     0
 total energy-change (2. order) :-0.2724992E-06  (-0.2187724E-06)
 number of electron    1039.0000177 magnetization     119.0000068
 augmentation part      257.3724335 magnetization      80.8967299

 Free energy of the ion-electron system (eV)
  ---------------------------------------------------
  alpha Z        PSCENC =      2952.23721804
  Ewald energy   TEWEN  =    -62481.55796075
  -Hartree energ DENC   =    -37479.05218222
  -exchange      EXHF   =         0.00000000
  -V(xc)+E(xc)   XCENC  =      4604.19035839
  PAW double counting   =    159677.75221995  -161749.58174780
  entropy T*S    EENTRO =        -0.00000000
  eigenvalues    EBANDS =    -12019.42894616
  atomic energy  EATOM  =    105475.44126576
  ---------------------------------------------------
  free energy    TOTEN  =     -1019.99977479 eV

  energy without entropy =    -1019.99977479  energy(sigma->0) =    -1019.99977479


--------------------------------------------------------------------------------------------------------




--------------------------------------- Iteration      1(   8)  ---------------------------------------


    POTLOK:  cpu time      0.1064: real time      0.1069
    SETDIJ:  cpu time      0.4455: real time      0.4470
    TRIAL :  cpu time      7.3825: real time      7.4202
    CORREC:  cpu time      3.3227: real time      3.3391
    EDDIAG:  cpu time      2.2933: real time      2.3050
    CHARGE:  cpu time      0.2581: real time      0.2603
    --------------------------------------------
      LOOP:  cpu time     13.8091: real time     13.8791

 eigenvalue-minimisations  :     0
 total energy-change (2. order) :-0.1884473E-06  (-0.1560098E-06)
 number of electron    1039.0000177 magnetization     119.0000068
 augmentation part      257.3724326 magnetization      80.8967314

 Free energy of the ion-electron system (eV)
  ---------------------------------------------------
  alpha Z        PSCENC =      2952.23721804
  Ewald energy   TEWEN  =    -62481.55796075
  -Hartree energ DENC   =    -37479.05194856
  -exchange      EXHF   =         0.00000000
  -V(xc)+E(xc)   XCENC  =      4604.19033763
  PAW double counting   =    159677.71865342  -161749.54837447
  entropy T*S    EENTRO =        -0.00000000
  eigenvalues    EBANDS =    -12019.42896605
  atomic energy  EATOM  =    105475.44126576
  ---------------------------------------------------
  free energy    TOTEN  =     -1019.99977498 eV

  energy without entropy =    -1019.99977498  energy(sigma->0) =    -1019.99977498


--------------------------------------------------------------------------------------------------------


  average scaling for gradient   0.8360


 average (electrostatic) potential at core
  the test charge radii are     0.9500  0.7215  0.9587  0.9254
  (the norm of the test charge is              1.0000)
       1 -83.5326       2 -83.5330       3 -83.4022       4 -83.4152       5 -83.4896
       6 -83.5308       7 -83.3863       8 -83.4736       9 -83.5710      10 -83.5326
      11 -83.4014      12 -79.1940      13 -83.6156      14 -83.5316      15 -83.3855
      16 -83.4230      17 -83.5340      18 -83.4973      19 -83.4669      20 -83.4141
      21 -83.4898      22 -83.5062      23 -83.4720      24 -83.4741      25 -71.6291
      26 -71.6775      27 -71.4956      28 -71.5494      29 -71.6547      30 -71.6466
      31 -71.6796      32 -71.6248      33 -72.0377      34 -72.1528      35 -71.8858
      36 -71.9569      37 -71.6659      38 -71.9867      39 -72.0710      40 -72.1030
      41 -71.6141      42 -71.6756      43 -71.5523      44 -71.5819      45 -71.6672
      46 -71.6843      47 -71.6043      48 -71.6604      49 -72.0445      50 -72.0659
      51 -71.9838      52 -71.9612      53 -71.9389      54 -71.9827      55 -72.0594
      56 -72.0789      57 -71.6827      58 -71.6766      59 -71.4938      60 -71.4396
      61 -71.9451      62 -71.6456      63 -71.6789      64 -71.2305      65 -72.0420
      66 -72.1030      67 -71.6651      68 -71.8019      69 -71.8842      70 -71.8012
      71 -72.0425      72 -72.1518      73 -71.8855      74 -71.6746      75 -71.5516
      76 -71.7002      77 -71.7462      78 -71.6830      79 -71.6032      80 -71.8733
      81 -72.2762      82 -72.0789      83 -71.9384      84 -71.9808      85 -71.9831
      86 -71.9806      87 -72.2774      88 -72.0663      89 -71.6296      90 -71.6046
      91 -71.5820      92 -71.5494      93 -71.6539      94 -71.6552      95 -71.6544
      96 -71.6245      97 -72.0716      98 -72.0322      99 -71.9952     100 -71.9858
     101 -71.9953     102 -71.9569     103 -72.0376     104 -72.0329     105 -71.6136
     106 -71.6147     107 -71.5890     108 -71.5815     109 -71.6670     110 -71.6600
     111 -71.6506     112 -71.6593     113 -72.0602     114 -72.0378     115 -71.9875
     116 -71.9825     117 -71.9868     118 -71.9602     119 -72.0439     120 -72.0384
     121 -86.7592     122 -86.8260     123 -86.5890     124 -86.7159     125 -86.7601
     126 -86.7844     127 -86.6999     128 -86.7144     129 -86.6173     130 -86.8255
     131 -86.5881     132 -86.7405     133 -86.9644     134 -86.7843     135 -86.6993
     136 -86.7298     137 -86.7591     138 -86.7498     139 -86.7277     140 -86.7153
     141 -86.7596     142 -86.7499     143 -86.7274     144 -86.7142     145 -44.5234



 E-fermi :   3.6537     XC(G=0): -10.0275     alpha+bet :-10.1256

 Fermi energy:         2.6341605191

 spin component 1

 k-point     1 :       0.0000    0.0000    0.0000
  band No.  band energies     occupation 
      1     -55.6359      1.00000
      2     -55.5619      1.00000
      3     -55.5617      1.00000
      4     -55.5544      1.00000
      5     -55.5515      1.00000
      6     -55.5500      1.00000
      7     -55.5450      1.00000
      8     -55.5442      1.00000
      9     -55.5216      1.00000
     10     -55.5122      1.00000
     11     -55.5077      1.00000
     12     -55.5074      1.00000
     13     -55.4888      1.00000
     14     -55.4857      1.00000
     15     -55.4851      1.00000
     16     -55.4816      1.00000
     17     -55.4712      1.00000
     18     -55.4646      1.00000
     19     -55.4524      1.00000
     20     -55.4294      1.00000
     21     -55.4283      1.00000
     22     -55.4280      1.00000
     23     -55.4273      1.00000
     24     -55.4270      1.00000
     25     -55.4181      1.00000
     26     -55.4173      1.00000
     27     -55.4170      1.00000
     28     -55.4158      1.00000
     29     -55.4067      1.00000
     30     -55.4065      1.00000
     31     -55.3881      1.00000
     32     -55.3840      1.00000
     33     -55.3832      1.00000
     34     -55.3773      1.00000
     35     -55.3694      1.00000
     36     -55.3693      1.00000
     37     -55.3550      1.00000
     38     -55.3545      1.00000
     39     -55.3503      1.00000
     40     -55.3445      1.00000
     41     -55.3391      1.00000
     42     -55.3251      1.00000
     43     -55.3242      1.00000
     44     -55.3223      1.00000
     45     -55.3208      1.00000
     46     -55.3116      1.00000
     47     -55.3111      1.00000
     48     -55.3077      1.00000
     49     -55.3014      1.00000
     50     -55.2958      1.00000
     51     -55.2868      1.00000
     52     -55.2863      1.00000
     53     -55.2840      1.00000
     54     -55.2829      1.00000
     55     -55.2735      1.00000
     56     -55.2730      1.00000
     57     -55.2702      1.00000
     58     -55.2682      1.00000
     59     -55.2586      1.00000
     60     -55.2578      1.00000
     61     -55.2552      1.00000
     62     -55.2542      1.00000
     63     -55.2293      1.00000
     64     -55.2283      1.00000
     65     -55.2104      1.00000
     66     -55.2100      1.00000
     67     -55.2093      1.00000
     68     -55.2074      1.00000
     69     -55.2066      1.00000
     70     -51.8423      1.00000
     71     -50.3976      1.00000
     72     -50.1066      1.00000
     73     -18.9617      1.00000
     74     -18.8043      1.00000
     75     -18.7484      1.00000
     76     -18.6772      1.00000
     77     -18.5525      1.00000
     78     -18.4703      1.00000
     79     -18.4410      1.00000
     80     -18.3722      1.00000
     81     -18.3683      1.00000
     82     -18.3228      1.00000
     83     -18.3130      1.00000
     84     -18.3018      1.00000
     85     -18.2971      1.00000
     86     -18.2954      1.00000
     87     -18.2844      1.00000
     88     -18.2721      1.00000
     89     -18.2620      1.00000
     90     -18.2396      1.00000
     91     -18.2337      1.00000
     92     -18.2148      1.00000
     93     -18.1850      1.00000
     94     -18.1842      1.00000
     95     -18.1654      1.00000
     96     -18.1374      1.00000
     97     -18.1352      1.00000
     98     -18.1186      1.00000
     99     -18.0797      1.00000
    100     -16.3613      1.00000
    101     -16.2279      1.00000
    102     -16.2091      1.00000
    103     -16.2000      1.00000
    104     -16.1745      1.00000
    105     -16.1697      1.00000
    106     -16.1412      1.00000
    107     -16.1087      1.00000
    108     -16.0824      1.00000
    109     -16.0659      1.00000
    110     -16.0606      1.00000
    111     -16.0506      1.00000
    112     -16.0440      1.00000
    113     -16.0391      1.00000
    114     -16.0229      1.00000
    115     -16.0086      1.00000
    116     -16.0055      1.00000
    117     -16.0049      1.00000
    118     -15.9977      1.00000
    119     -15.9949      1.00000
    120     -15.9898      1.00000
    121     -15.9840      1.00000
    122     -15.9603      1.00000
    123     -15.9280      1.00000
    124     -15.9231      1.00000
    125     -15.9223      1.00000
    126     -15.8929      1.00000
    127     -15.8916      1.00000
    128     -15.8674      1.00000
    129     -15.8616      1.00000
    130     -15.8374      1.00000
    131     -15.8320      1.00000
    132     -15.8196      1.00000
    133     -15.8143      1.00000
    134     -15.7906      1.00000
    135     -15.7882      1.00000
    136     -15.7798      1.00000
    137     -15.7760      1.00000
    138     -15.7570      1.00000
    139     -15.7458      1.00000
    140     -15.7442      1.00000
    141     -15.7345      1.00000
    142     -15.7330      1.00000
    143     -15.7207      1.00000
    144     -15.7131      1.00000
    145     -15.7081      1.00000
    146     -15.7044      1.00000
    147     -15.7024      1.00000
    148     -15.6916      1.00000
    149     -15.6836      1.00000
    150     -15.6691      1.00000
    151     -15.6658      1.00000
    152     -15.6555      1.00000
    153     -15.6545      1.00000
    154     -15.6420      1.00000
    155     -15.6376      1.00000
    156     -15.6271      1.00000
    157     -15.6230      1.00000
    158     -15.6073      1.00000
    159     -15.6065      1.00000
    160     -15.6038      1.00000
    161     -15.5981      1.00000
    162     -15.5942      1.00000
    163     -15.5941      1.00000
    164     -15.5904      1.00000
    165     -15.5661      1.00000
    166     -15.5582      1.00000
    167     -15.5235      1.00000
    168     -15.5207      1.00000
    169     -15.4933      1.00000
    170     -15.4729      1.00000
    171     -15.4525      1.00000
    172      -7.1588      1.00000
    173      -6.9904      1.00000
    174      -6.9824      1.00000
    175      -6.9658      1.00000
    176      -6.9653      1.00000
    177      -6.9548      1.00000
    178      -6.8992      1.00000
    179      -6.8948      1.00000
    180      -6.8836      1.00000
    181      -6.8708      1.00000
    182      -6.8521      1.00000
    183      -6.7516      1.00000
    184      -6.4200      1.00000
    185      -6.3549      1.00000
    186      -6.3223      1.00000
    187      -6.2113      1.00000
    188      -6.1946      1.00000
    189      -6.1861      1.00000
    190      -6.1504      1.00000
    191      -6.1503      1.00000
    192      -6.0944      1.00000
    193      -6.0915      1.00000
    194      -6.0893      1.00000
    195      -6.0689      1.00000
    196      -6.0577      1.00000
    197      -6.0476      1.00000
    198      -6.0399      1.00000
    199      -6.0157      1.00000
    200      -6.0045      1.00000
    201      -5.9878      1.00000
    202      -5.9612      1.00000
    203      -5.9454      1.00000
    204      -5.9033      1.00000
    205      -5.8881      1.00000
    206      -5.8795      1.00000
    207      -5.8576      1.00000
    208      -5.8283      1.00000
    209      -5.8208      1.00000
    210      -5.8206      1.00000
    211      -5.8072      1.00000
    212      -5.7527      1.00000
    213      -5.7037      1.00000
    214      -5.6602      1.00000
    215      -5.6239      1.00000
    216      -5.6151      1.00000
    217      -5.5516      1.00000
    218      -5.5316      1.00000
    219      -5.4837      1.00000
    220      -5.4627      1.00000
    221      -5.4370      1.00000
    222      -5.4116      1.00000
    223      -5.4009      1.00000
    224      -5.4001      1.00000
    225      -5.3207      1.00000
    226      -5.3022      1.00000
    227      -5.2845      1.00000
    228      -5.2698      1.00000
    229      -5.2654      1.00000
    230      -5.2453      1.00000
    231      -5.2410      1.00000
    232      -5.2362      1.00000
    233      -5.2137      1.00000
    234      -5.2071      1.00000
    235      -5.1898      1.00000
    236      -5.1874      1.00000
    237      -5.1771      1.00000
    238      -5.1732      1.00000
    239      -5.1640      1.00000
    240      -5.1486      1.00000
    241      -5.1445      1.00000
    242      -5.1355      1.00000
    243      -5.1262      1.00000
    244      -5.1192      1.00000
    245      -5.1130      1.00000
    246      -5.1124      1.00000
    247      -5.0904      1.00000
    248      -5.0861      1.00000
    249      -5.0823      1.00000
    250      -5.0799      1.00000
    251      -5.0772      1.00000
    252      -5.0744      1.00000
    253      -5.0646      1.00000
    254      -5.0563      1.00000
    255      -5.0532      1.00000
    256      -5.0471      1.00000
    257      -5.0459      1.00000
    258      -5.0397      1.00000
    259      -5.0376      1.00000
    260      -5.0350      1.00000
    261      -5.0289      1.00000
    262      -5.0255      1.00000
    263      -5.0205      1.00000
    264      -5.0153      1.00000
    265      -5.0077      1.00000
    266      -5.0009      1.00000
    267      -4.9874      1.00000
    268      -4.9776      1.00000
    269      -4.9764      1.00000
    270      -4.9711      1.00000
    271      -4.9697      1.00000
    272      -4.9656      1.00000
    273      -4.9566      1.00000
    274      -4.9559      1.00000
    275      -4.9479      1.00000
    276      -4.9473      1.00000
    277      -4.9334      1.00000
    278      -4.9333      1.00000
    279      -4.9241      1.00000
    280      -4.9211      1.00000
    281      -4.9127      1.00000
    282      -4.9113      1.00000
    283      -4.8942      1.00000
    284      -4.8938      1.00000
    285      -4.8865      1.00000
    286      -4.8796      1.00000
    287      -4.8714      1.00000
    288      -4.8673      1.00000
    289      -4.8579      1.00000
    290      -4.8502      1.00000
    291      -4.8248      1.00000
    292      -4.8107      1.00000
    293      -4.8085      1.00000
    294      -4.8077      1.00000
    295      -4.7892      1.00000
    296      -4.7853      1.00000
    297      -4.7784      1.00000
    298      -4.7284      1.00000
    299      -4.6908      1.00000
    300      -4.6852      1.00000
    301      -4.5974      1.00000
    302      -4.4892      1.00000
    303      -4.4320      1.00000
    304      -4.3346      1.00000
    305      -4.3091      1.00000
    306      -4.2976      1.00000
    307      -4.2718      1.00000
    308      -4.1202      1.00000
    309      -4.0090      1.00000
    310      -3.9793      1.00000
    311      -3.9602      1.00000
    312      -3.9401      1.00000
    313      -3.9063      1.00000
    314      -3.8598      1.00000
    315      -3.5923      1.00000
    316      -3.5541      1.00000
    317      -3.5462      1.00000
    318      -3.4744      1.00000
    319      -3.4468      1.00000
    320      -3.4258      1.00000
    321      -3.4217      1.00000
    322      -3.3755      1.00000
    323      -3.3737      1.00000
    324      -3.3054      1.00000
    325      -3.2584      1.00000
    326      -3.2460      1.00000
    327      -3.2222      1.00000
    328      -3.1811      1.00000
    329      -3.1705      1.00000
    330      -3.0357      1.00000
    331      -3.0050      1.00000
    332      -2.9975      1.00000
    333      -2.9931      1.00000
    334      -2.9446      1.00000
    335      -2.9147      1.00000
    336      -2.9112      1.00000
    337      -2.8823      1.00000
    338      -2.8807      1.00000
    339      -2.8772      1.00000
    340      -2.8475      1.00000
    341      -2.8096      1.00000
    342      -2.8087      1.00000
    343      -2.7785      1.00000
    344      -2.7712      1.00000
    345      -2.7673      1.00000
    346      -2.7535      1.00000
    347      -2.7352      1.00000
    348      -2.7345      1.00000
    349      -2.7061      1.00000
    350      -2.6892      1.00000
    351      -2.6869      1.00000
    352      -2.6766      1.00000
    353      -2.6741      1.00000
    354      -2.6646      1.00000
    355      -2.6521      1.00000
    356      -2.6270      1.00000
    357      -2.6096      1.00000
    358      -2.5972      1.00000
    359      -2.5806      1.00000
    360      -2.5291      1.00000
    361      -2.5004      1.00000
    362      -2.4959      1.00000
    363      -2.4749      1.00000
    364      -2.4633      1.00000
    365      -2.4186      1.00000
    366      -2.3996      1.00000
    367      -2.3918      1.00000
    368      -2.3762      1.00000
    369      -2.3717      1.00000
    370      -2.3568      1.00000
    371      -2.3404      1.00000
    372      -2.3143      1.00000
    373      -2.3136      1.00000
    374      -2.2598      1.00000
    375      -2.2579      1.00000
    376      -2.2426      1.00000
    377      -2.2279      1.00000
    378      -2.2231      1.00000
    379      -2.2040      1.00000
    380      -2.1149      1.00000
    381      -1.9349      1.00000
    382      -1.8366      1.00000
    383      -1.7179      1.00000
    384      -1.5449      1.00000
    385      -1.5394      1.00000
    386      -1.4642      1.00000
    387      -1.4345      1.00000
    388      -1.4249      1.00000
    389      -1.3928      1.00000
    390      -1.3769      1.00000
    391      -1.3390      1.00000
    392      -1.2590      1.00000
    393      -1.2553      1.00000
    394      -1.1624      1.00000
    395      -1.1316      1.00000
    396      -1.1260      1.00000
    397      -1.1028      1.00000
    398      -1.0905      1.00000
    399      -1.0394      1.00000
    400      -1.0322      1.00000
    401      -1.0319      1.00000
    402      -0.9896      1.00000
    403      -0.9731      1.00000
    404      -0.9288      1.00000
    405      -0.9070      1.00000
    406      -0.8996      1.00000
    407      -0.8709      1.00000
    408      -0.8675      1.00000
    409      -0.8506      1.00000
    410      -0.8184      1.00000
    411      -0.8129      1.00000
    412      -0.7907      1.00000
    413      -0.7902      1.00000
    414      -0.7823      1.00000
    415      -0.7127      1.00000
    416      -0.6510      1.00000
    417      -0.6304      1.00000
    418      -0.5936      1.00000
    419      -0.5845      1.00000
    420      -0.5630      1.00000
    421      -0.5381      1.00000
    422      -0.5215      1.00000
    423      -0.5152      1.00000
    424      -0.4982      1.00000
    425      -0.4923      1.00000
    426      -0.4684      1.00000
    427      -0.4573      1.00000
    428      -0.4420      1.00000
    429      -0.4012      1.00000
    430      -0.3535      1.00000
    431      -0.3404      1.00000
    432      -0.3389      1.00000
    433      -0.3044      1.00000
    434      -0.2872      1.00000
    435      -0.2643      1.00000
    436      -0.2524      1.00000
    437      -0.2442      1.00000
    438      -0.2221      1.00000
    439      -0.2142      1.00000
    440      -0.2061      1.00000
    441      -0.2044      1.00000
    442      -0.1814      1.00000
    443      -0.1799      1.00000
    444      -0.1698      1.00000
    445      -0.1511      1.00000
    446      -0.1403      1.00000
    447      -0.1399      1.00000
    448      -0.1302      1.00000
    449      -0.1132      1.00000
    450      -0.0926      1.00000
    451      -0.0380      1.00000
    452      -0.0221      1.00000
    453       0.0100      1.00000
    454       0.0194      1.00000
    455       0.0299      1.00000
    456       0.0368      1.00000
    457       0.0407      1.00000
    458       0.0460      1.00000
    459       0.0896      1.00000
    460       0.0958      1.00000
    461       0.0991      1.00000
    462       0.1718      1.00000
    463       0.1998      1.00000
    464       0.2131      1.00000
    465       0.2197      1.00000
    466       0.2288      1.00000
    467       0.2293      1.00000
    468       0.2556      1.00000
    469       0.2618      1.00000
    470       0.2678      1.00000
    471       0.2692      1.00000
    472       0.3102      1.00000
    473       0.3518      1.00000
    474       0.3568      1.00000
    475       0.4139      1.00000
    476       0.4377      1.00000
    477       0.4410      1.00000
    478       0.4522      1.00000
    479       0.4639      1.00000
    480       0.4725      1.00000
    481       0.4898      1.00000
    482       0.5068      1.00000
    483       0.5232      1.00000
    484       0.5463      1.00000
    485       0.5772      1.00000
    486       0.5824      1.00000
    487       0.5908      1.00000
    488       0.6886      1.00000
    489       0.7029      1.00000
    490       0.7271      1.00000
    491       0.7639      1.00000
    492       0.7996      1.00000
    493       0.8135      1.00000
    494       0.8295      1.00000
    495       0.8494      1.00000
    496       0.8716      1.00000
    497       0.8839      1.00000
    498       0.8985      1.00000
    499       0.9065      1.00000
    500       0.9067      1.00000
    501       0.9294      1.00000
    502       0.9297      1.00000
    503       0.9385      1.00000
    504       0.9633      1.00000
    505       0.9712      1.00000
    506       0.9795      1.00000
    507       0.9933      1.00000
    508       1.0298      1.00000
    509       1.0355      1.00000
    510       1.0990      1.00000
    511       1.1095      1.00000
    512       1.1210      1.00000
    513       1.1341      1.00000
    514       1.1429      1.00000
    515       1.1690      1.00000
    516       1.1706      1.00000
    517       1.1970      1.00000
    518       1.2036      1.00000
    519       1.2137      1.00000
    520       1.2411      1.00000
    521       1.2717      1.00000
    522       1.3140      1.00000
    523       1.3531      1.00000
    524       1.3627      1.00000
    525       1.3706      1.00000
    526       1.3736      1.00000
    527       1.4164      1.00000
    528       1.4226      1.00000
    529       1.4467      1.00000
    530       1.4695      1.00000
    531       1.4821      1.00000
    532       1.4973      1.00000
    533       1.5030      1.00000
    534       1.5205      1.00000
    535       1.5209      1.00000
    536       1.5264      1.00000
    537       1.5422      1.00000
    538       1.5442      1.00000
    539       1.5567      1.00000
    540       1.5675      1.00000
    541       1.5777      1.00000
    542       1.5889      1.00000
    543       1.5903      1.00000
    544       1.6156      1.00000
    545       1.6172      1.00000
    546       1.6220      1.00000
    547       1.6252      1.00000
    548       1.6325      1.00000
    549       1.6386      1.00000
    550       1.6502      1.00000
    551       1.6586      1.00000
    552       1.6706      1.00000
    553       1.6959      1.00000
    554       1.7073      1.00000
    555       1.7246      1.00000
    556       1.7410      1.00000
    557       1.7470      1.00000
    558       1.7650      1.00000
    559       1.7867      1.00000
    560       1.7888      1.00000
    561       1.8173      1.00000
    562       1.8332      1.00000
    563       1.8459      1.00000
    564       1.8533      1.00000
    565       1.8556      1.00000
    566       1.9132      1.00000
    567       1.9254      1.00000
    568       1.9552      1.00000
    569       1.9633      1.00000
    570       1.9642      1.00000
    571       2.0014      1.00000
    572       2.0100      1.00000
    573       2.0272      1.00000
    574       2.0469      1.00000
    575       2.0576      1.00000
    576       2.0993      1.00000
    577       2.1028      1.00000
    578       2.2383      1.00000
    579       2.3756      1.00000
    580       7.4251      0.00000
    581       8.2757      0.00000
    582       8.3044      0.00000
    583       9.3946      0.00000
    584       9.4326      0.00000
    585       9.5357      0.00000
    586       9.8689      0.00000
    587       9.9028      0.00000
    588       9.9338      0.00000
    589       9.9795      0.00000
    590      10.0101      0.00000
    591      10.0185      0.00000
    592      10.0376      0.00000
    593      10.0385      0.00000
    594      10.0538      0.00000
    595      10.0635      0.00000
    596      10.2668      0.00000
    597      10.3014      0.00000
    598      10.3026      0.00000
    599      10.3274      0.00000
    600      10.6333      0.00000
    601      10.6346      0.00000
    602      10.6602      0.00000
    603      10.6722      0.00000
    604      10.7028      0.00000
    605      10.7255      0.00000
    606      10.7388      0.00000
    607      10.7657      0.00000
    608      10.7710      0.00000
    609      10.7965      0.00000
    610      10.8275      0.00000
    611      10.8446      0.00000
    612      10.8588      0.00000
    613      10.8746      0.00000
    614      10.9064      0.00000
    615      10.9767      0.00000
    616      11.0046      0.00000
    617      11.0433      0.00000
    618      11.0680      0.00000
    619      11.0700      0.00000
    620      11.0927      0.00000
    621      11.0959      0.00000
    622      11.1067      0.00000
    623      11.1335      0.00000
    624      11.1484      0.00000
    625      11.1960      0.00000
    626      11.2198      0.00000
    627      11.2466      0.00000
    628      11.2613      0.00000
    629      11.2656      0.00000
    630      11.2910      0.00000
    631      11.3017      0.00000
    632      11.3618      0.00000
    633      11.4434      0.00000
    634      11.4574      0.00000
    635      11.4638      0.00000
    636      11.4806      0.00000
    637      11.4910      0.00000
    638      11.5046      0.00000
    639      11.5105      0.00000
    640      11.5245      0.00000
    641      11.5677      0.00000
    642      11.5841      0.00000
    643      11.6005      0.00000
    644      11.6056      0.00000
    645      11.6125      0.00000
    646      11.6919      0.00000
    647      11.7603      0.00000
    648      11.7725      0.00000
    649      11.7828      0.00000
    650      11.7994      0.00000
    651      11.8214      0.00000
    652      11.8463      0.00000
    653      11.8658      0.00000
    654      11.9031      0.00000
    655      11.9082      0.00000
    656      11.9422      0.00000
    657      11.9683      0.00000
    658      11.9794      0.00000
    659      12.0410      0.00000
    660      12.1281      0.00000
    661      12.1806      0.00000
    662      12.2090      0.00000
    663      12.2141      0.00000
    664      12.2362      0.00000
    665      12.2400      0.00000
    666      12.2529      0.00000
    667      12.2918      0.00000
    668      12.2966      0.00000
    669      12.4405      0.00000
    670      12.5156      0.00000
    671      12.5198      0.00000
    672      12.5305      0.00000
    673      12.5650      0.00000
    674      12.5705      0.00000
    675      12.5915      0.00000
    676      12.5976      0.00000
    677      12.6346      0.00000
    678      12.8411      0.00000
    679      12.8561      0.00000
    680      12.9179      0.00000
    681      12.9503      0.00000
    682      12.9780      0.00000
    683      13.0093      0.00000
    684      13.0407      0.00000
    685      13.0478      0.00000
    686      13.0708      0.00000
    687      13.0916      0.00000
    688      13.1107      0.00000
    689      13.1472      0.00000
    690      13.1613      0.00000
    691      13.2309      0.00000
    692      13.2618      0.00000
    693      13.3160      0.00000
    694      13.4628      0.00000
    695      13.5124      0.00000
    696      13.5961      0.00000

 k-point     2 :       0.3333    0.0000    0.0000
  band No.  band energies     occupation 
      1     -55.6359      1.00000
      2     -55.5619      1.00000
      3     -55.5617      1.00000
      4     -55.5544      1.00000
      5     -55.5515      1.00000
      6     -55.5500      1.00000
      7     -55.5450      1.00000
      8     -55.5442      1.00000
      9     -55.5216      1.00000
     10     -55.5122      1.00000
     11     -55.5077      1.00000
     12     -55.5074      1.00000
     13     -55.4888      1.00000
     14     -55.4857      1.00000
     15     -55.4851      1.00000
     16     -55.4816      1.00000
     17     -55.4712      1.00000
     18     -55.4646      1.00000
     19     -55.4524      1.00000
     20     -55.4294      1.00000
     21     -55.4283      1.00000
     22     -55.4280      1.00000
     23     -55.4273      1.00000
     24     -55.4270      1.00000
     25     -55.4181      1.00000
     26     -55.4173      1.00000
     27     -55.4170      1.00000
     28     -55.4158      1.00000
     29     -55.4067      1.00000
     30     -55.4065      1.00000
     31     -55.3881      1.00000
     32     -55.3840      1.00000
     33     -55.3832      1.00000
     34     -55.3773      1.00000
     35     -55.3694      1.00000
     36     -55.3693      1.00000
     37     -55.3550      1.00000
     38     -55.3545      1.00000
     39     -55.3503      1.00000
     40     -55.3445      1.00000
     41     -55.3391      1.00000
     42     -55.3251      1.00000
     43     -55.3242      1.00000
     44     -55.3223      1.00000
     45     -55.3208      1.00000
     46     -55.3116      1.00000
     47     -55.3111      1.00000
     48     -55.3077      1.00000
     49     -55.3014      1.00000
     50     -55.2958      1.00000
     51     -55.2868      1.00000
     52     -55.2863      1.00000
     53     -55.2840      1.00000
     54     -55.2829      1.00000
     55     -55.2735      1.00000
     56     -55.2730      1.00000
     57     -55.2702      1.00000
     58     -55.2682      1.00000
     59     -55.2586      1.00000
     60     -55.2578      1.00000
     61     -55.2552      1.00000
     62     -55.2542      1.00000
     63     -55.2293      1.00000
     64     -55.2283      1.00000
     65     -55.2104      1.00000
     66     -55.2100      1.00000
     67     -55.2093      1.00000
     68     -55.2074      1.00000
     69     -55.2067      1.00000
     70     -51.8423      1.00000
     71     -50.3976      1.00000
     72     -50.1066      1.00000
     73     -18.9619      1.00000
     74     -18.8052      1.00000
     75     -18.7481      1.00000
     76     -18.6609      1.00000
     77     -18.5272      1.00000
     78     -18.4551      1.00000
     79     -18.4428      1.00000
     80     -18.3969      1.00000
     81     -18.3718      1.00000
     82     -18.3666      1.00000
     83     -18.3536      1.00000
     84     -18.3225      1.00000
     85     -18.3091      1.00000
     86     -18.3015      1.00000
     87     -18.2973      1.00000
     88     -18.2478      1.00000
     89     -18.2406      1.00000
     90     -18.2220      1.00000
     91     -18.2067      1.00000
     92     -18.2039      1.00000
     93     -18.1844      1.00000
     94     -18.1777      1.00000
     95     -18.1646      1.00000
     96     -18.1389      1.00000
     97     -18.1366      1.00000
     98     -18.1170      1.00000
     99     -18.0824      1.00000
    100     -16.3590      1.00000
    101     -16.2139      1.00000
    102     -16.1978      1.00000
    103     -16.1772      1.00000
    104     -16.1616      1.00000
    105     -16.1543      1.00000
    106     -16.1238      1.00000
    107     -16.0978      1.00000
    108     -16.0971      1.00000
    109     -16.0742      1.00000
    110     -16.0734      1.00000
    111     -16.0661      1.00000
    112     -16.0647      1.00000
    113     -16.0464      1.00000
    114     -16.0457      1.00000
    115     -16.0399      1.00000
    116     -16.0347      1.00000
    117     -16.0268      1.00000
    118     -16.0096      1.00000
    119     -15.9988      1.00000
    120     -15.9913      1.00000
    121     -15.9861      1.00000
    122     -15.9578      1.00000
    123     -15.9378      1.00000
    124     -15.9269      1.00000
    125     -15.9260      1.00000
    126     -15.8727      1.00000
    127     -15.8374      1.00000
    128     -15.8267      1.00000
    129     -15.8218      1.00000
    130     -15.8119      1.00000
    131     -15.8067      1.00000
    132     -15.7990      1.00000
    133     -15.7986      1.00000
    134     -15.7844      1.00000
    135     -15.7762      1.00000
    136     -15.7743      1.00000
    137     -15.7617      1.00000
    138     -15.7606      1.00000
    139     -15.7556      1.00000
    140     -15.7483      1.00000
    141     -15.7370      1.00000
    142     -15.7364      1.00000
    143     -15.7305      1.00000
    144     -15.7302      1.00000
    145     -15.7220      1.00000
    146     -15.7170      1.00000
    147     -15.6993      1.00000
    148     -15.6930      1.00000
    149     -15.6920      1.00000
    150     -15.6769      1.00000
    151     -15.6741      1.00000
    152     -15.6564      1.00000
    153     -15.6547      1.00000
    154     -15.6489      1.00000
    155     -15.6401      1.00000
    156     -15.6269      1.00000
    157     -15.6245      1.00000
    158     -15.6119      1.00000
    159     -15.6049      1.00000
    160     -15.6036      1.00000
    161     -15.6034      1.00000
    162     -15.5961      1.00000
    163     -15.5931      1.00000
    164     -15.5876      1.00000
    165     -15.5711      1.00000
    166     -15.5646      1.00000
    167     -15.5450      1.00000
    168     -15.5295      1.00000
    169     -15.4927      1.00000
    170     -15.4845      1.00000
    171     -15.4498      1.00000
    172      -7.0379      1.00000
    173      -6.9007      1.00000
    174      -6.8845      1.00000
    175      -6.8605      1.00000
    176      -6.8586      1.00000
    177      -6.8455      1.00000
    178      -6.8194      1.00000
    179      -6.7961      1.00000
    180      -6.7700      1.00000
    181      -6.7151      1.00000
    182      -6.7104      1.00000
    183      -6.6599      1.00000
    184      -6.6422      1.00000
    185      -6.5616      1.00000
    186      -6.5200      1.00000
    187      -6.4985      1.00000
    188      -6.4925      1.00000
    189      -6.4645      1.00000
    190      -6.4525      1.00000
    191      -6.4313      1.00000
    192      -6.4055      1.00000
    193      -6.3340      1.00000
    194      -6.2502      1.00000
    195      -6.1029      1.00000
    196      -6.0246      1.00000
    197      -5.9814      1.00000
    198      -5.9725      1.00000
    199      -5.9712      1.00000
    200      -5.9401      1.00000
    201      -5.9385      1.00000
    202      -5.9118      1.00000
    203      -5.9015      1.00000
    204      -5.8588      1.00000
    205      -5.8427      1.00000
    206      -5.8381      1.00000
    207      -5.8175      1.00000
    208      -5.8053      1.00000
    209      -5.7958      1.00000
    210      -5.7795      1.00000
    211      -5.7766      1.00000
    212      -5.7731      1.00000
    213      -5.7481      1.00000
    214      -5.6682      1.00000
    215      -5.6435      1.00000
    216      -5.6174      1.00000
    217      -5.5511      1.00000
    218      -5.5314      1.00000
    219      -5.4994      1.00000
    220      -5.4648      1.00000
    221      -5.4025      1.00000
    222      -5.4023      1.00000
    223      -5.3589      1.00000
    224      -5.3169      1.00000
    225      -5.2899      1.00000
    226      -5.2804      1.00000
    227      -5.2621      1.00000
    228      -5.2501      1.00000
    229      -5.2399      1.00000
    230      -5.2223      1.00000
    231      -5.2193      1.00000
    232      -5.2082      1.00000
    233      -5.2042      1.00000
    234      -5.1934      1.00000
    235      -5.1899      1.00000
    236      -5.1756      1.00000
    237      -5.1727      1.00000
    238      -5.1578      1.00000
    239      -5.1500      1.00000
    240      -5.1394      1.00000
    241      -5.1224      1.00000
    242      -5.1202      1.00000
    243      -5.1064      1.00000
    244      -5.0979      1.00000
    245      -5.0949      1.00000
    246      -5.0861      1.00000
    247      -5.0853      1.00000
    248      -5.0756      1.00000
    249      -5.0735      1.00000
    250      -5.0649      1.00000
    251      -5.0585      1.00000
    252      -5.0560      1.00000
    253      -5.0503      1.00000
    254      -5.0464      1.00000
    255      -5.0450      1.00000
    256      -5.0429      1.00000
    257      -5.0357      1.00000
    258      -5.0337      1.00000
    259      -5.0306      1.00000
    260      -5.0279      1.00000
    261      -5.0242      1.00000
    262      -5.0093      1.00000
    263      -5.0012      1.00000
    264      -4.9939      1.00000
    265      -4.9836      1.00000
    266      -4.9833      1.00000
    267      -4.9706      1.00000
    268      -4.9695      1.00000
    269      -4.9627      1.00000
    270      -4.9623      1.00000
    271      -4.9604      1.00000
    272      -4.9454      1.00000
    273      -4.9384      1.00000
    274      -4.9376      1.00000
    275      -4.9250      1.00000
    276      -4.9191      1.00000
    277      -4.9182      1.00000
    278      -4.9130      1.00000
    279      -4.9117      1.00000
    280      -4.9040      1.00000
    281      -4.9021      1.00000
    282      -4.8869      1.00000
    283      -4.8849      1.00000
    284      -4.8796      1.00000
    285      -4.8726      1.00000
    286      -4.8714      1.00000
    287      -4.8487      1.00000
    288      -4.8162      1.00000
    289      -4.8157      1.00000
    290      -4.8132      1.00000
    291      -4.8043      1.00000
    292      -4.7881      1.00000
    293      -4.7476      1.00000
    294      -4.7225      1.00000
    295      -4.6941      1.00000
    296      -4.6481      1.00000
    297      -4.6457      1.00000
    298      -4.6137      1.00000
    299      -4.6124      1.00000
    300      -4.5885      1.00000
    301      -4.5769      1.00000
    302      -4.4645      1.00000
    303      -4.4105      1.00000
    304      -4.3687      1.00000
    305      -4.3562      1.00000
    306      -4.3433      1.00000
    307      -4.2866      1.00000
    308      -4.2476      1.00000
    309      -4.1855      1.00000
    310      -4.1555      1.00000
    311      -4.1156      1.00000
    312      -4.1020      1.00000
    313      -3.8872      1.00000
    314      -3.8845      1.00000
    315      -3.7515      1.00000
    316      -3.6985      1.00000
    317      -3.6116      1.00000
    318      -3.4904      1.00000
    319      -3.4379      1.00000
    320      -3.3906      1.00000
    321      -3.3833      1.00000
    322      -3.3477      1.00000
    323      -3.2781      1.00000
    324      -3.2416      1.00000
    325      -3.1472      1.00000
    326      -3.1406      1.00000
    327      -3.1168      1.00000
    328      -3.1044      1.00000
    329      -3.0840      1.00000
    330      -3.0744      1.00000
    331      -3.0681      1.00000
    332      -3.0527      1.00000
    333      -3.0508      1.00000
    334      -3.0462      1.00000
    335      -3.0121      1.00000
    336      -2.9970      1.00000
    337      -2.9929      1.00000
    338      -2.9214      1.00000
    339      -2.9127      1.00000
    340      -2.9078      1.00000
    341      -2.8871      1.00000
    342      -2.8528      1.00000
    343      -2.8275      1.00000
    344      -2.8270      1.00000
    345      -2.8110      1.00000
    346      -2.8008      1.00000
    347      -2.7887      1.00000
    348      -2.7764      1.00000
    349      -2.7406      1.00000
    350      -2.7374      1.00000
    351      -2.7148      1.00000
    352      -2.7107      1.00000
    353      -2.6931      1.00000
    354      -2.6671      1.00000
    355      -2.6593      1.00000
    356      -2.6509      1.00000
    357      -2.6306      1.00000
    358      -2.6137      1.00000
    359      -2.6056      1.00000
    360      -2.5581      1.00000
    361      -2.5158      1.00000
    362      -2.5096      1.00000
    363      -2.4905      1.00000
    364      -2.4527      1.00000
    365      -2.4392      1.00000
    366      -2.4231      1.00000
    367      -2.3579      1.00000
    368      -2.3556      1.00000
    369      -2.3449      1.00000
    370      -2.3330      1.00000
    371      -2.3099      1.00000
    372      -2.3078      1.00000
    373      -2.2861      1.00000
    374      -2.2480      1.00000
    375      -2.2416      1.00000
    376      -2.2302      1.00000
    377      -2.2270      1.00000
    378      -2.2043      1.00000
    379      -2.1696      1.00000
    380      -2.1206      1.00000
    381      -2.0209      1.00000
    382      -1.9664      1.00000
    383      -1.6876      1.00000
    384      -1.5424      1.00000
    385      -1.5046      1.00000
    386      -1.4116      1.00000
    387      -1.3877      1.00000
    388      -1.3430      1.00000
    389      -1.3099      1.00000
    390      -1.2672      1.00000
    391      -1.2553      1.00000
    392      -1.2476      1.00000
    393      -1.2179      1.00000
    394      -1.2050      1.00000
    395      -1.1829      1.00000
    396      -1.1220      1.00000
    397      -1.0915      1.00000
    398      -1.0275      1.00000
    399      -1.0111      1.00000
    400      -0.9929      1.00000
    401      -0.9587      1.00000
    402      -0.9260      1.00000
    403      -0.9115      1.00000
    404      -0.9052      1.00000
    405      -0.8960      1.00000
    406      -0.8788      1.00000
    407      -0.8635      1.00000
    408      -0.8418      1.00000
    409      -0.8137      1.00000
    410      -0.7948      1.00000
    411      -0.7762      1.00000
    412      -0.7602      1.00000
    413      -0.7336      1.00000
    414      -0.7136      1.00000
    415      -0.7121      1.00000
    416      -0.6748      1.00000
    417      -0.6670      1.00000
    418      -0.6318      1.00000
    419      -0.6174      1.00000
    420      -0.5627      1.00000
    421      -0.5269      1.00000
    422      -0.5169      1.00000
    423      -0.4867      1.00000
    424      -0.4445      1.00000
    425      -0.4406      1.00000
    426      -0.4350      1.00000
    427      -0.4116      1.00000
    428      -0.3912      1.00000
    429      -0.3742      1.00000
    430      -0.3662      1.00000
    431      -0.3583      1.00000
    432      -0.3543      1.00000
    433      -0.3309      1.00000
    434      -0.3251      1.00000
    435      -0.3039      1.00000
    436      -0.2528      1.00000
    437      -0.2386      1.00000
    438      -0.1949      1.00000
    439      -0.1911      1.00000
    440      -0.1827      1.00000
    441      -0.1701      1.00000
    442      -0.1677      1.00000
    443      -0.1455      1.00000
    444      -0.1225      1.00000
    445      -0.1052      1.00000
    446      -0.0933      1.00000
    447      -0.0588      1.00000
    448      -0.0481      1.00000
    449      -0.0462      1.00000
    450      -0.0357      1.00000
    451      -0.0322      1.00000
    452      -0.0064      1.00000
    453      -0.0021      1.00000
    454       0.0309      1.00000
    455       0.0453      1.00000
    456       0.0724      1.00000
    457       0.0910      1.00000
    458       0.1036      1.00000
    459       0.1133      1.00000
    460       0.1146      1.00000
    461       0.1380      1.00000
    462       0.1526      1.00000
    463       0.1595      1.00000
    464       0.1805      1.00000
    465       0.2006      1.00000
    466       0.2130      1.00000
    467       0.2194      1.00000
    468       0.2357      1.00000
    469       0.2401      1.00000
    470       0.2531      1.00000
    471       0.2724      1.00000
    472       0.2849      1.00000
    473       0.2926      1.00000
    474       0.2994      1.00000
    475       0.3206      1.00000
    476       0.3254      1.00000
    477       0.3518      1.00000
    478       0.3622      1.00000
    479       0.4226      1.00000
    480       0.4227      1.00000
    481       0.4809      1.00000
    482       0.4992      1.00000
    483       0.5199      1.00000
    484       0.5403      1.00000
    485       0.5464      1.00000
    486       0.5566      1.00000
    487       0.5764      1.00000
    488       0.5870      1.00000
    489       0.6722      1.00000
    490       0.7032      1.00000
    491       0.7845      1.00000
    492       0.7909      1.00000
    493       0.7969      1.00000
    494       0.8007      1.00000
    495       0.8256      1.00000
    496       0.8283      1.00000
    497       0.8311      1.00000
    498       0.8539      1.00000
    499       0.8781      1.00000
    500       0.8987      1.00000
    501       0.9174      1.00000
    502       0.9200      1.00000
    503       0.9525      1.00000
    504       0.9575      1.00000
    505       0.9646      1.00000
    506       0.9995      1.00000
    507       1.0290      1.00000
    508       1.0294      1.00000
    509       1.0453      1.00000
    510       1.0510      1.00000
    511       1.0580      1.00000
    512       1.0858      1.00000
    513       1.1099      1.00000
    514       1.1500      1.00000
    515       1.1545      1.00000
    516       1.1901      1.00000
    517       1.1928      1.00000
    518       1.1983      1.00000
    519       1.2227      1.00000
    520       1.2371      1.00000
    521       1.2493      1.00000
    522       1.2969      1.00000
    523       1.3295      1.00000
    524       1.3347      1.00000
    525       1.3404      1.00000
    526       1.3501      1.00000
    527       1.3531      1.00000
    528       1.3773      1.00000
    529       1.3805      1.00000
    530       1.3958      1.00000
    531       1.4021      1.00000
    532       1.4203      1.00000
    533       1.4396      1.00000
    534       1.4954      1.00000
    535       1.5156      1.00000
    536       1.5195      1.00000
    537       1.5578      1.00000
    538       1.5717      1.00000
    539       1.5750      1.00000
    540       1.5934      1.00000
    541       1.5959      1.00000
    542       1.6108      1.00000
    543       1.6300      1.00000
    544       1.6350      1.00000
    545       1.6373      1.00000
    546       1.6682      1.00000
    547       1.6751      1.00000
    548       1.7016      1.00000
    549       1.7099      1.00000
    550       1.7347      1.00000
    551       1.7427      1.00000
    552       1.7549      1.00000
    553       1.7598      1.00000
    554       1.7772      1.00000
    555       1.7839      1.00000
    556       1.7867      1.00000
    557       1.7939      1.00000
    558       1.7979      1.00000
    559       1.8149      1.00000
    560       1.8211      1.00000
    561       1.8237      1.00000
    562       1.8480      1.00000
    563       1.8486      1.00000
    564       1.8724      1.00000
    565       1.8802      1.00000
    566       1.8982      1.00000
    567       1.9127      1.00000
    568       1.9247      1.00000
    569       1.9250      1.00000
    570       1.9443      1.00000
    571       1.9619      1.00000
    572       1.9828      1.00000
    573       1.9917      1.00000
    574       2.0009      1.00000
    575       2.0249      1.00000
    576       2.0431      1.00000
    577       2.0542      1.00000
    578       2.2230      1.00000
    579       2.3723      1.00000
    580       7.7864      0.00000
    581       8.5363      0.00000
    582       8.5762      0.00000
    583       8.6810      0.00000
    584       9.2571      0.00000
    585       9.2844      0.00000
    586       9.4349      0.00000
    587       9.4767      0.00000
    588       9.9682      0.00000
    589      10.0094      0.00000
    590      10.0281      0.00000
    591      10.0513      0.00000
    592      10.0547      0.00000
    593      10.0801      0.00000
    594      10.1542      0.00000
    595      10.2661      0.00000
    596      10.2907      0.00000
    597      10.4023      0.00000
    598      10.4399      0.00000
    599      10.5008      0.00000
    600      10.6202      0.00000
    601      10.6378      0.00000
    602      10.6586      0.00000
    603      10.6742      0.00000
    604      10.6810      0.00000
    605      10.7104      0.00000
    606      10.7433      0.00000
    607      10.8247      0.00000
    608      10.8491      0.00000
    609      10.8876      0.00000
    610      10.9200      0.00000
    611      10.9267      0.00000
    612      10.9503      0.00000
    613      10.9802      0.00000
    614      11.0076      0.00000
    615      11.0162      0.00000
    616      11.0514      0.00000
    617      11.0668      0.00000
    618      11.0825      0.00000
    619      11.1089      0.00000
    620      11.1214      0.00000
    621      11.1412      0.00000
    622      11.1800      0.00000
    623      11.2025      0.00000
    624      11.2300      0.00000
    625      11.2328      0.00000
    626      11.2643      0.00000
    627      11.2777      0.00000
    628      11.2894      0.00000
    629      11.3017      0.00000
    630      11.3198      0.00000
    631      11.3436      0.00000
    632      11.3817      0.00000
    633      11.3890      0.00000
    634      11.3974      0.00000
    635      11.4052      0.00000
    636      11.4210      0.00000
    637      11.4212      0.00000
    638      11.4382      0.00000
    639      11.4534      0.00000
    640      11.4704      0.00000
    641      11.4960      0.00000
    642      11.5443      0.00000
    643      11.5448      0.00000
    644      11.6841      0.00000
    645      11.7071      0.00000
    646      11.7292      0.00000
    647      11.7734      0.00000
    648      11.7866      0.00000
    649      11.8085      0.00000
    650      11.8392      0.00000
    651      11.8588      0.00000
    652      11.8621      0.00000
    653      11.8846      0.00000
    654      11.8908      0.00000
    655      11.9132      0.00000
    656      11.9215      0.00000
    657      11.9407      0.00000
    658      11.9653      0.00000
    659      11.9924      0.00000
    660      12.0282      0.00000
    661      12.0835      0.00000
    662      12.0845      0.00000
    663      12.1469      0.00000
    664      12.1665      0.00000
    665      12.1808      0.00000
    666      12.1821      0.00000
    667      12.2101      0.00000
    668      12.2144      0.00000
    669      12.2361      0.00000
    670      12.5216      0.00000
    671      12.5777      0.00000
    672      12.5861      0.00000
    673      12.6595      0.00000
    674      12.7545      0.00000
    675      12.7860      0.00000
    676      12.8328      0.00000
    677      12.8452      0.00000
    678      12.8638      0.00000
    679      12.9062      0.00000
    680      12.9078      0.00000
    681      12.9154      0.00000
    682      12.9938      0.00000
    683      13.0083      0.00000
    684      13.0202      0.00000
    685      13.0368      0.00000
    686      13.0659      0.00000
    687      13.0751      0.00000
    688      13.0773      0.00000
    689      13.1162      0.00000
    690      13.1204      0.00000
    691      13.1802      0.00000
    692      13.2410      0.00000
    693      13.2589      0.00000
    694      13.4114      0.00000
    695      13.4329      0.00000
    696      13.4508      0.00000

 k-point     3 :       0.0000    0.0000    0.3333
  band No.  band energies     occupation 
      1     -55.6359      1.00000
      2     -55.5619      1.00000
      3     -55.5617      1.00000
      4     -55.5544      1.00000
      5     -55.5516      1.00000
      6     -55.5500      1.00000
      7     -55.5450      1.00000
      8     -55.5442      1.00000
      9     -55.5216      1.00000
     10     -55.5122      1.00000
     11     -55.5077      1.00000
     12     -55.5074      1.00000
     13     -55.4888      1.00000
     14     -55.4857      1.00000
     15     -55.4851      1.00000
     16     -55.4816      1.00000
     17     -55.4712      1.00000
     18     -55.4646      1.00000
     19     -55.4524      1.00000
     20     -55.4294      1.00000
     21     -55.4283      1.00000
     22     -55.4280      1.00000
     23     -55.4273      1.00000
     24     -55.4270      1.00000
     25     -55.4181      1.00000
     26     -55.4173      1.00000
     27     -55.4170      1.00000
     28     -55.4158      1.00000
     29     -55.4067      1.00000
     30     -55.4065      1.00000
     31     -55.3881      1.00000
     32     -55.3840      1.00000
     33     -55.3832      1.00000
     34     -55.3773      1.00000
     35     -55.3694      1.00000
     36     -55.3693      1.00000
     37     -55.3550      1.00000
     38     -55.3545      1.00000
     39     -55.3503      1.00000
     40     -55.3445      1.00000
     41     -55.3391      1.00000
     42     -55.3251      1.00000
     43     -55.3242      1.00000
     44     -55.3223      1.00000
     45     -55.3208      1.00000
     46     -55.3116      1.00000
     47     -55.3111      1.00000
     48     -55.3077      1.00000
     49     -55.3014      1.00000
     50     -55.2958      1.00000
     51     -55.2868      1.00000
     52     -55.2863      1.00000
     53     -55.2840      1.00000
     54     -55.2829      1.00000
     55     -55.2735      1.00000
     56     -55.2730      1.00000
     57     -55.2702      1.00000
     58     -55.2682      1.00000
     59     -55.2586      1.00000
     60     -55.2578      1.00000
     61     -55.2552      1.00000
     62     -55.2542      1.00000
     63     -55.2293      1.00000
     64     -55.2283      1.00000
     65     -55.2104      1.00000
     66     -55.2100      1.00000
     67     -55.2093      1.00000
     68     -55.2074      1.00000
     69     -55.2067      1.00000
     70     -51.8424      1.00000
     71     -50.3976      1.00000
     72     -50.1066      1.00000
     73     -18.9651      1.00000
     74     -18.8052      1.00000
     75     -18.7479      1.00000
     76     -18.6588      1.00000
     77     -18.5313      1.00000
     78     -18.4628      1.00000
     79     -18.4451      1.00000
     80     -18.4198      1.00000
     81     -18.3796      1.00000
     82     -18.3393      1.00000
     83     -18.3090      1.00000
     84     -18.2982      1.00000
     85     -18.2932      1.00000
     86     -18.2853      1.00000
     87     -18.2651      1.00000
     88     -18.2590      1.00000
     89     -18.2463      1.00000
     90     -18.2338      1.00000
     91     -18.2179      1.00000
     92     -18.2145      1.00000
     93     -18.2068      1.00000
     94     -18.1987      1.00000
     95     -18.1825      1.00000
     96     -18.1700      1.00000
     97     -18.1230      1.00000
     98     -18.1182      1.00000
     99     -18.0742      1.00000
    100     -16.3545      1.00000
    101     -16.2069      1.00000
    102     -16.1910      1.00000
    103     -16.1737      1.00000
    104     -16.1599      1.00000
    105     -16.1490      1.00000
    106     -16.1327      1.00000
    107     -16.1296      1.00000
    108     -16.1085      1.00000
    109     -16.1060      1.00000
    110     -16.0955      1.00000
    111     -16.0711      1.00000
    112     -16.0463      1.00000
    113     -16.0227      1.00000
    114     -16.0209      1.00000
    115     -15.9940      1.00000
    116     -15.9810      1.00000
    117     -15.9790      1.00000
    118     -15.9743      1.00000
    119     -15.9709      1.00000
    120     -15.9700      1.00000
    121     -15.9674      1.00000
    122     -15.9577      1.00000
    123     -15.9341      1.00000
    124     -15.9217      1.00000
    125     -15.9210      1.00000
    126     -15.9000      1.00000
    127     -15.8954      1.00000
    128     -15.8802      1.00000
    129     -15.8745      1.00000
    130     -15.8621      1.00000
    131     -15.8543      1.00000
    132     -15.8323      1.00000
    133     -15.8249      1.00000
    134     -15.8102      1.00000
    135     -15.7978      1.00000
    136     -15.7813      1.00000
    137     -15.7785      1.00000
    138     -15.7477      1.00000
    139     -15.7457      1.00000
    140     -15.7380      1.00000
    141     -15.7326      1.00000
    142     -15.7322      1.00000
    143     -15.7223      1.00000
    144     -15.7164      1.00000
    145     -15.7080      1.00000
    146     -15.7078      1.00000
    147     -15.7005      1.00000
    148     -15.6940      1.00000
    149     -15.6774      1.00000
    150     -15.6729      1.00000
    151     -15.6637      1.00000
    152     -15.6519      1.00000
    153     -15.6502      1.00000
    154     -15.6406      1.00000
    155     -15.6357      1.00000
    156     -15.6311      1.00000
    157     -15.6215      1.00000
    158     -15.6142      1.00000
    159     -15.6098      1.00000
    160     -15.6047      1.00000
    161     -15.6013      1.00000
    162     -15.5941      1.00000
    163     -15.5899      1.00000
    164     -15.5730      1.00000
    165     -15.5696      1.00000
    166     -15.5563      1.00000
    167     -15.5316      1.00000
    168     -15.5275      1.00000
    169     -15.4934      1.00000
    170     -15.4756      1.00000
    171     -15.4528      1.00000
    172      -7.1581      1.00000
    173      -6.9770      1.00000
    174      -6.9561      1.00000
    175      -6.9520      1.00000
    176      -6.9446      1.00000
    177      -6.9360      1.00000
    178      -6.9249      1.00000
    179      -6.9123      1.00000
    180      -6.9039      1.00000
    181      -6.8865      1.00000
    182      -6.8805      1.00000
    183      -6.7544      1.00000
    184      -6.3954      1.00000
    185      -6.3409      1.00000
    186      -6.3174      1.00000
    187      -6.2805      1.00000
    188      -6.2671      1.00000
    189      -6.2215      1.00000
    190      -6.1514      1.00000
    191      -6.1205      1.00000
    192      -6.1037      1.00000
    193      -6.0905      1.00000
    194      -6.0840      1.00000
    195      -6.0809      1.00000
    196      -6.0665      1.00000
    197      -6.0409      1.00000
    198      -6.0358      1.00000
    199      -6.0211      1.00000
    200      -6.0131      1.00000
    201      -5.9846      1.00000
    202      -5.9653      1.00000
    203      -5.9224      1.00000
    204      -5.9021      1.00000
    205      -5.8870      1.00000
    206      -5.8739      1.00000
    207      -5.8674      1.00000
    208      -5.8399      1.00000
    209      -5.8243      1.00000
    210      -5.8187      1.00000
    211      -5.8045      1.00000
    212      -5.7017      1.00000
    213      -5.6787      1.00000
    214      -5.6447      1.00000
    215      -5.6068      1.00000
    216      -5.5814      1.00000
    217      -5.5622      1.00000
    218      -5.5511      1.00000
    219      -5.4980      1.00000
    220      -5.4807      1.00000
    221      -5.4627      1.00000
    222      -5.4411      1.00000
    223      -5.4183      1.00000
    224      -5.3494      1.00000
    225      -5.3211      1.00000
    226      -5.3089      1.00000
    227      -5.2953      1.00000
    228      -5.2782      1.00000
    229      -5.2631      1.00000
    230      -5.2618      1.00000
    231      -5.2474      1.00000
    232      -5.2318      1.00000
    233      -5.2234      1.00000
    234      -5.2092      1.00000
    235      -5.2061      1.00000
    236      -5.1894      1.00000
    237      -5.1665      1.00000
    238      -5.1640      1.00000
    239      -5.1496      1.00000
    240      -5.1419      1.00000
    241      -5.1397      1.00000
    242      -5.1328      1.00000
    243      -5.1260      1.00000
    244      -5.1181      1.00000
    245      -5.1085      1.00000
    246      -5.0991      1.00000
    247      -5.0943      1.00000
    248      -5.0916      1.00000
    249      -5.0880      1.00000
    250      -5.0755      1.00000
    251      -5.0733      1.00000
    252      -5.0658      1.00000
    253      -5.0642      1.00000
    254      -5.0519      1.00000
    255      -5.0461      1.00000
    256      -5.0404      1.00000
    257      -5.0357      1.00000
    258      -5.0281      1.00000
    259      -5.0205      1.00000
    260      -5.0197      1.00000
    261      -5.0136      1.00000
    262      -5.0117      1.00000
    263      -5.0012      1.00000
    264      -4.9966      1.00000
    265      -4.9910      1.00000
    266      -4.9877      1.00000
    267      -4.9865      1.00000
    268      -4.9858      1.00000
    269      -4.9750      1.00000
    270      -4.9700      1.00000
    271      -4.9699      1.00000
    272      -4.9557      1.00000
    273      -4.9550      1.00000
    274      -4.9498      1.00000
    275      -4.9447      1.00000
    276      -4.9446      1.00000
    277      -4.9385      1.00000
    278      -4.9291      1.00000
    279      -4.9257      1.00000
    280      -4.9162      1.00000
    281      -4.9148      1.00000
    282      -4.9052      1.00000
    283      -4.9032      1.00000
    284      -4.9031      1.00000
    285      -4.9008      1.00000
    286      -4.8896      1.00000
    287      -4.8869      1.00000
    288      -4.8730      1.00000
    289      -4.8723      1.00000
    290      -4.8556      1.00000
    291      -4.8525      1.00000
    292      -4.8413      1.00000
    293      -4.8365      1.00000
    294      -4.8361      1.00000
    295      -4.7574      1.00000
    296      -4.7514      1.00000
    297      -4.7369      1.00000
    298      -4.7285      1.00000
    299      -4.6632      1.00000
    300      -4.5941      1.00000
    301      -4.4443      1.00000
    302      -4.4324      1.00000
    303      -4.3636      1.00000
    304      -4.3073      1.00000
    305      -4.2405      1.00000
    306      -4.2008      1.00000
    307      -4.1652      1.00000
    308      -4.1303      1.00000
    309      -4.1250      1.00000
    310      -4.0023      1.00000
    311      -3.9532      1.00000
    312      -3.8872      1.00000
    313      -3.8701      1.00000
    314      -3.8216      1.00000
    315      -3.7521      1.00000
    316      -3.6287      1.00000
    317      -3.6023      1.00000
    318      -3.5121      1.00000
    319      -3.4733      1.00000
    320      -3.3936      1.00000
    321      -3.3000      1.00000
    322      -3.2695      1.00000
    323      -3.2374      1.00000
    324      -3.2253      1.00000
    325      -3.2034      1.00000
    326      -3.1925      1.00000
    327      -3.1896      1.00000
    328      -3.1755      1.00000
    329      -3.1541      1.00000
    330      -3.1366      1.00000
    331      -3.1152      1.00000
    332      -3.1097      1.00000
    333      -3.0384      1.00000
    334      -3.0253      1.00000
    335      -2.9737      1.00000
    336      -2.9710      1.00000
    337      -2.9349      1.00000
    338      -2.9263      1.00000
    339      -2.9081      1.00000
    340      -2.9050      1.00000
    341      -2.8811      1.00000
    342      -2.8791      1.00000
    343      -2.8730      1.00000
    344      -2.8418      1.00000
    345      -2.8302      1.00000
    346      -2.8216      1.00000
    347      -2.8198      1.00000
    348      -2.7957      1.00000
    349      -2.7780      1.00000
    350      -2.7759      1.00000
    351      -2.7510      1.00000
    352      -2.7415      1.00000
    353      -2.7281      1.00000
    354      -2.7225      1.00000
    355      -2.6984      1.00000
    356      -2.6838      1.00000
    357      -2.6802      1.00000
    358      -2.6640      1.00000
    359      -2.6588      1.00000
    360      -2.6526      1.00000
    361      -2.6059      1.00000
    362      -2.5897      1.00000
    363      -2.5748      1.00000
    364      -2.5615      1.00000
    365      -2.5502      1.00000
    366      -2.5203      1.00000
    367      -2.5047      1.00000
    368      -2.4434      1.00000
    369      -2.3883      1.00000
    370      -2.3480      1.00000
    371      -2.2695      1.00000
    372      -2.2455      1.00000
    373      -2.2177      1.00000
    374      -2.2146      1.00000
    375      -2.1522      1.00000
    376      -2.1474      1.00000
    377      -2.0917      1.00000
    378      -2.0716      1.00000
    379      -2.0649      1.00000
    380      -1.9681      1.00000
    381      -1.8873      1.00000
    382      -1.7991      1.00000
    383      -1.5867      1.00000
    384      -1.5063      1.00000
    385      -1.4669      1.00000
    386      -1.4496      1.00000
    387      -1.3852      1.00000
    388      -1.3683      1.00000
    389      -1.2898      1.00000
    390      -1.2797      1.00000
    391      -1.2033      1.00000
    392      -1.1821      1.00000
    393      -1.1634      1.00000
    394      -1.1138      1.00000
    395      -1.1028      1.00000
    396      -1.0769      1.00000
    397      -1.0573      1.00000
    398      -1.0464      1.00000
    399      -1.0212      1.00000
    400      -1.0173      1.00000
    401      -0.9757      1.00000
    402      -0.9638      1.00000
    403      -0.9610      1.00000
    404      -0.9462      1.00000
    405      -0.9397      1.00000
    406      -0.9118      1.00000
    407      -0.8911      1.00000
    408      -0.8826      1.00000
    409      -0.8581      1.00000
    410      -0.8446      1.00000
    411      -0.8350      1.00000
    412      -0.7945      1.00000
    413      -0.7629      1.00000
    414      -0.7140      1.00000
    415      -0.6739      1.00000
    416      -0.6718      1.00000
    417      -0.6442      1.00000
    418      -0.6065      1.00000
    419      -0.5840      1.00000
    420      -0.5665      1.00000
    421      -0.5438      1.00000
    422      -0.5210      1.00000
    423      -0.4796      1.00000
    424      -0.4679      1.00000
    425      -0.4571      1.00000
    426      -0.4526      1.00000
    427      -0.4314      1.00000
    428      -0.4118      1.00000
    429      -0.3857      1.00000
    430      -0.3691      1.00000
    431      -0.3679      1.00000
    432      -0.3128      1.00000
    433      -0.3027      1.00000
    434      -0.2857      1.00000
    435      -0.2779      1.00000
    436      -0.2544      1.00000
    437      -0.2422      1.00000
    438      -0.2284      1.00000
    439      -0.1964      1.00000
    440      -0.1937      1.00000
    441      -0.1712      1.00000
    442      -0.1556      1.00000
    443      -0.1478      1.00000
    444      -0.1377      1.00000
    445      -0.1164      1.00000
    446      -0.1054      1.00000
    447      -0.0858      1.00000
    448      -0.0781      1.00000
    449      -0.0485      1.00000
    450      -0.0322      1.00000
    451      -0.0080      1.00000
    452      -0.0033      1.00000
    453       0.0240      1.00000
    454       0.0325      1.00000
    455       0.0609      1.00000
    456       0.0662      1.00000
    457       0.0725      1.00000
    458       0.0820      1.00000
    459       0.1006      1.00000
    460       0.1034      1.00000
    461       0.1203      1.00000
    462       0.1359      1.00000
    463       0.1426      1.00000
    464       0.1862      1.00000
    465       0.2037      1.00000
    466       0.2307      1.00000
    467       0.2456      1.00000
    468       0.2496      1.00000
    469       0.2882      1.00000
    470       0.2903      1.00000
    471       0.3003      1.00000
    472       0.3138      1.00000
    473       0.3260      1.00000
    474       0.3288      1.00000
    475       0.3398      1.00000
    476       0.3452      1.00000
    477       0.3705      1.00000
    478       0.3755      1.00000
    479       0.3949      1.00000
    480       0.4524      1.00000
    481       0.4530      1.00000
    482       0.4937      1.00000
    483       0.5173      1.00000
    484       0.5605      1.00000
    485       0.5672      1.00000
    486       0.5880      1.00000
    487       0.5951      1.00000
    488       0.6419      1.00000
    489       0.6426      1.00000
    490       0.6831      1.00000
    491       0.7195      1.00000
    492       0.7452      1.00000
    493       0.7674      1.00000
    494       0.8200      1.00000
    495       0.8230      1.00000
    496       0.8522      1.00000
    497       0.8541      1.00000
    498       0.8712      1.00000
    499       0.8845      1.00000
    500       0.9006      1.00000
    501       0.9081      1.00000
    502       0.9197      1.00000
    503       0.9289      1.00000
    504       0.9496      1.00000
    505       0.9648      1.00000
    506       0.9966      1.00000
    507       1.0089      1.00000
    508       1.0194      1.00000
    509       1.0401      1.00000
    510       1.0948      1.00000
    511       1.1035      1.00000
    512       1.1377      1.00000
    513       1.1499      1.00000
    514       1.1588      1.00000
    515       1.1723      1.00000
    516       1.1864      1.00000
    517       1.1974      1.00000
    518       1.2076      1.00000
    519       1.2170      1.00000
    520       1.2329      1.00000
    521       1.2855      1.00000
    522       1.3062      1.00000
    523       1.3184      1.00000
    524       1.3247      1.00000
    525       1.3529      1.00000
    526       1.3649      1.00000
    527       1.3859      1.00000
    528       1.3915      1.00000
    529       1.4019      1.00000
    530       1.4345      1.00000
    531       1.4351      1.00000
    532       1.4619      1.00000
    533       1.4651      1.00000
    534       1.4744      1.00000
    535       1.4967      1.00000
    536       1.5005      1.00000
    537       1.5352      1.00000
    538       1.5425      1.00000
    539       1.5621      1.00000
    540       1.5630      1.00000
    541       1.5756      1.00000
    542       1.5840      1.00000
    543       1.5930      1.00000
    544       1.6098      1.00000
    545       1.6230      1.00000
    546       1.6309      1.00000
    547       1.6485      1.00000
    548       1.6516      1.00000
    549       1.6774      1.00000
    550       1.6842      1.00000
    551       1.7055      1.00000
    552       1.7078      1.00000
    553       1.7151      1.00000
    554       1.7217      1.00000
    555       1.7473      1.00000
    556       1.7556      1.00000
    557       1.7601      1.00000
    558       1.7720      1.00000
    559       1.8006      1.00000
    560       1.8049      1.00000
    561       1.8258      1.00000
    562       1.8374      1.00000
    563       1.8387      1.00000
    564       1.8518      1.00000
    565       1.8692      1.00000
    566       1.9007      1.00000
    567       1.9010      1.00000
    568       1.9514      1.00000
    569       1.9554      1.00000
    570       1.9853      1.00000
    571       1.9910      1.00000
    572       2.0008      1.00000
    573       2.0340      1.00000
    574       2.0413      1.00000
    575       2.0494      1.00000
    576       2.0793      1.00000
    577       2.0805      1.00000
    578       2.2441      1.00000
    579       2.3718      1.00000
    580       7.7624      0.00000
    581       8.5324      0.00000
    582       8.5745      0.00000
    583       8.5761      0.00000
    584       9.2269      0.00000
    585       9.2561      0.00000
    586       9.6738      0.00000
    587       9.8669      0.00000
    588       9.9684      0.00000
    589      10.0073      0.00000
    590      10.0202      0.00000
    591      10.0306      0.00000
    592      10.0671      0.00000
    593      10.1471      0.00000
    594      10.1732      0.00000
    595      10.2483      0.00000
    596      10.3291      0.00000
    597      10.3408      0.00000
    598      10.4180      0.00000
    599      10.4409      0.00000
    600      10.5029      0.00000
    601      10.5476      0.00000
    602      10.5846      0.00000
    603      10.6084      0.00000
    604      10.6965      0.00000
    605      10.7228      0.00000
    606      10.7273      0.00000
    607      10.7506      0.00000
    608      10.7663      0.00000
    609      10.7916      0.00000
    610      10.7919      0.00000
    611      10.8047      0.00000
    612      10.8199      0.00000
    613      10.8339      0.00000
    614      10.8808      0.00000
    615      10.8871      0.00000
    616      10.9086      0.00000
    617      10.9521      0.00000
    618      10.9717      0.00000
    619      10.9790      0.00000
    620      11.0015      0.00000
    621      11.0229      0.00000
    622      11.0596      0.00000
    623      11.0970      0.00000
    624      11.1034      0.00000
    625      11.1463      0.00000
    626      11.1593      0.00000
    627      11.2411      0.00000
    628      11.2865      0.00000
    629      11.3265      0.00000
    630      11.3620      0.00000
    631      11.3623      0.00000
    632      11.3978      0.00000
    633      11.4674      0.00000
    634      11.4805      0.00000
    635      11.5209      0.00000
    636      11.5420      0.00000
    637      11.6079      0.00000
    638      11.6461      0.00000
    639      11.6575      0.00000
    640      11.6837      0.00000
    641      11.6942      0.00000
    642      11.7116      0.00000
    643      11.7438      0.00000
    644      11.7522      0.00000
    645      11.7667      0.00000
    646      11.7805      0.00000
    647      11.8062      0.00000
    648      11.8285      0.00000
    649      11.8427      0.00000
    650      11.8539      0.00000
    651      11.8779      0.00000
    652      11.8837      0.00000
    653      11.9093      0.00000
    654      11.9608      0.00000
    655      11.9747      0.00000
    656      12.0472      0.00000
    657      12.0485      0.00000
    658      12.0584      0.00000
    659      12.0614      0.00000
    660      12.0960      0.00000
    661      12.1005      0.00000
    662      12.1126      0.00000
    663      12.1449      0.00000
    664      12.2446      0.00000
    665      12.2748      0.00000
    666      12.2807      0.00000
    667      12.3374      0.00000
    668      12.3825      0.00000
    669      12.4572      0.00000
    670      12.4817      0.00000
    671      12.4824      0.00000
    672      12.5129      0.00000
    673      12.5400      0.00000
    674      12.5656      0.00000
    675      12.5783      0.00000
    676      12.5838      0.00000
    677      12.6428      0.00000
    678      12.6675      0.00000
    679      12.9317      0.00000
    680      12.9631      0.00000
    681      12.9662      0.00000
    682      12.9906      0.00000
    683      12.9924      0.00000
    684      13.0232      0.00000
    685      13.0352      0.00000
    686      13.0786      0.00000
    687      13.0912      0.00000
    688      13.0983      0.00000
    689      13.1333      0.00000
    690      13.1635      0.00000
    691      13.2168      0.00000
    692      13.2283      0.00000
    693      13.2916      0.00000
    694      13.3083      0.00000
    695      13.3401      0.00000
    696      13.4092      0.00000

 k-point     4 :       0.3333    0.0000    0.3333
  band No.  band energies     occupation 
      1     -55.6359      1.00000
      2     -55.5619      1.00000
      3     -55.5617      1.00000
      4     -55.5544      1.00000
      5     -55.5515      1.00000
      6     -55.5500      1.00000
      7     -55.5450      1.00000
      8     -55.5442      1.00000
      9     -55.5216      1.00000
     10     -55.5122      1.00000
     11     -55.5077      1.00000
     12     -55.5074      1.00000
     13     -55.4888      1.00000
     14     -55.4857      1.00000
     15     -55.4851      1.00000
     16     -55.4816      1.00000
     17     -55.4712      1.00000
     18     -55.4646      1.00000
     19     -55.4524      1.00000
     20     -55.4294      1.00000
     21     -55.4283      1.00000
     22     -55.4280      1.00000
     23     -55.4273      1.00000
     24     -55.4270      1.00000
     25     -55.4181      1.00000
     26     -55.4173      1.00000
     27     -55.4170      1.00000
     28     -55.4158      1.00000
     29     -55.4067      1.00000
     30     -55.4065      1.00000
     31     -55.3881      1.00000
     32     -55.3840      1.00000
     33     -55.3832      1.00000
     34     -55.3773      1.00000
     35     -55.3694      1.00000
     36     -55.3693      1.00000
     37     -55.3550      1.00000
     38     -55.3545      1.00000
     39     -55.3503      1.00000
     40     -55.3445      1.00000
     41     -55.3391      1.00000
     42     -55.3251      1.00000
     43     -55.3242      1.00000
     44     -55.3223      1.00000
     45     -55.3208      1.00000
     46     -55.3116      1.00000
     47     -55.3111      1.00000
     48     -55.3077      1.00000
     49     -55.3014      1.00000
     50     -55.2958      1.00000
     51     -55.2868      1.00000
     52     -55.2863      1.00000
     53     -55.2840      1.00000
     54     -55.2829      1.00000
     55     -55.2735      1.00000
     56     -55.2730      1.00000
     57     -55.2702      1.00000
     58     -55.2682      1.00000
     59     -55.2586      1.00000
     60     -55.2578      1.00000
     61     -55.2552      1.00000
     62     -55.2542      1.00000
     63     -55.2293      1.00000
     64     -55.2283      1.00000
     65     -55.2104      1.00000
     66     -55.2100      1.00000
     67     -55.2093      1.00000
     68     -55.2074      1.00000
     69     -55.2067      1.00000
     70     -51.8423      1.00000
     71     -50.3976      1.00000
     72     -50.1066      1.00000
     73     -18.9642      1.00000
     74     -18.8059      1.00000
     75     -18.7478      1.00000
     76     -18.6527      1.00000
     77     -18.5040      1.00000
     78     -18.4442      1.00000
     79     -18.4202      1.00000
     80     -18.4151      1.00000
     81     -18.3815      1.00000
     82     -18.3653      1.00000
     83     -18.3642      1.00000
     84     -18.3386      1.00000
     85     -18.3255      1.00000
     86     -18.3080      1.00000
     87     -18.2806      1.00000
     88     -18.2520      1.00000
     89     -18.2354      1.00000
     90     -18.2112      1.00000
     91     -18.2092      1.00000
     92     -18.2015      1.00000
     93     -18.1940      1.00000
     94     -18.1836      1.00000
     95     -18.1804      1.00000
     96     -18.1456      1.00000
     97     -18.1265      1.00000
     98     -18.1190      1.00000
     99     -18.0793      1.00000
    100     -16.3529      1.00000
    101     -16.1929      1.00000
    102     -16.1835      1.00000
    103     -16.1504      1.00000
    104     -16.1421      1.00000
    105     -16.1261      1.00000
    106     -16.1118      1.00000
    107     -16.1113      1.00000
    108     -16.0956      1.00000
    109     -16.0934      1.00000
    110     -16.0890      1.00000
    111     -16.0706      1.00000
    112     -16.0585      1.00000
    113     -16.0582      1.00000
    114     -16.0470      1.00000
    115     -16.0433      1.00000
    116     -16.0208      1.00000
    117     -16.0133      1.00000
    118     -16.0091      1.00000
    119     -16.0001      1.00000
    120     -15.9830      1.00000
    121     -15.9813      1.00000
    122     -15.9717      1.00000
    123     -15.9478      1.00000
    124     -15.9450      1.00000
    125     -15.9326      1.00000
    126     -15.8882      1.00000
    127     -15.8413      1.00000
    128     -15.8306      1.00000
    129     -15.8288      1.00000
    130     -15.8138      1.00000
    131     -15.8097      1.00000
    132     -15.8042      1.00000
    133     -15.7999      1.00000
    134     -15.7926      1.00000
    135     -15.7815      1.00000
    136     -15.7706      1.00000
    137     -15.7606      1.00000
    138     -15.7591      1.00000
    139     -15.7452      1.00000
    140     -15.7434      1.00000
    141     -15.7401      1.00000
    142     -15.7319      1.00000
    143     -15.7304      1.00000
    144     -15.7277      1.00000
    145     -15.7259      1.00000
    146     -15.7154      1.00000
    147     -15.7012      1.00000
    148     -15.6953      1.00000
    149     -15.6898      1.00000
    150     -15.6760      1.00000
    151     -15.6757      1.00000
    152     -15.6577      1.00000
    153     -15.6509      1.00000
    154     -15.6460      1.00000
    155     -15.6343      1.00000
    156     -15.6310      1.00000
    157     -15.6300      1.00000
    158     -15.6121      1.00000
    159     -15.6066      1.00000
    160     -15.6037      1.00000
    161     -15.6035      1.00000
    162     -15.5922      1.00000
    163     -15.5919      1.00000
    164     -15.5817      1.00000
    165     -15.5752      1.00000
    166     -15.5687      1.00000
    167     -15.5550      1.00000
    168     -15.5315      1.00000
    169     -15.4926      1.00000
    170     -15.4870      1.00000
    171     -15.4498      1.00000
    172      -7.0387      1.00000
    173      -6.8944      1.00000
    174      -6.8630      1.00000
    175      -6.8523      1.00000
    176      -6.8409      1.00000
    177      -6.8295      1.00000
    178      -6.8134      1.00000
    179      -6.7988      1.00000
    180      -6.7789      1.00000
    181      -6.7333      1.00000
    182      -6.7281      1.00000
    183      -6.7219      1.00000
    184      -6.6414      1.00000
    185      -6.5493      1.00000
    186      -6.5335      1.00000
    187      -6.5229      1.00000
    188      -6.5157      1.00000
    189      -6.4798      1.00000
    190      -6.4190      1.00000
    191      -6.4186      1.00000
    192      -6.3576      1.00000
    193      -6.3502      1.00000
    194      -6.2603      1.00000
    195      -6.1323      1.00000
    196      -6.0396      1.00000
    197      -5.9899      1.00000
    198      -5.9814      1.00000
    199      -5.9792      1.00000
    200      -5.9466      1.00000
    201      -5.9438      1.00000
    202      -5.9257      1.00000
    203      -5.9227      1.00000
    204      -5.8814      1.00000
    205      -5.8569      1.00000
    206      -5.8407      1.00000
    207      -5.8335      1.00000
    208      -5.8143      1.00000
    209      -5.8008      1.00000
    210      -5.7782      1.00000
    211      -5.7776      1.00000
    212      -5.7693      1.00000
    213      -5.7223      1.00000
    214      -5.6666      1.00000
    215      -5.6316      1.00000
    216      -5.5986      1.00000
    217      -5.5727      1.00000
    218      -5.5557      1.00000
    219      -5.4865      1.00000
    220      -5.4725      1.00000
    221      -5.4260      1.00000
    222      -5.3944      1.00000
    223      -5.3368      1.00000
    224      -5.2767      1.00000
    225      -5.2753      1.00000
    226      -5.2468      1.00000
    227      -5.2384      1.00000
    228      -5.2327      1.00000
    229      -5.2244      1.00000
    230      -5.2144      1.00000
    231      -5.2120      1.00000
    232      -5.2071      1.00000
    233      -5.1894      1.00000
    234      -5.1810      1.00000
    235      -5.1745      1.00000
    236      -5.1677      1.00000
    237      -5.1524      1.00000
    238      -5.1465      1.00000
    239      -5.1361      1.00000
    240      -5.1356      1.00000
    241      -5.1234      1.00000
    242      -5.1066      1.00000
    243      -5.1058      1.00000
    244      -5.1004      1.00000
    245      -5.0893      1.00000
    246      -5.0862      1.00000
    247      -5.0852      1.00000
    248      -5.0767      1.00000
    249      -5.0759      1.00000
    250      -5.0699      1.00000
    251      -5.0619      1.00000
    252      -5.0537      1.00000
    253      -5.0489      1.00000
    254      -5.0433      1.00000
    255      -5.0405      1.00000
    256      -5.0358      1.00000
    257      -5.0236      1.00000
    258      -5.0204      1.00000
    259      -5.0180      1.00000
    260      -5.0117      1.00000
    261      -5.0088      1.00000
    262      -5.0039      1.00000
    263      -4.9949      1.00000
    264      -4.9907      1.00000
    265      -4.9886      1.00000
    266      -4.9861      1.00000
    267      -4.9770      1.00000
    268      -4.9730      1.00000
    269      -4.9687      1.00000
    270      -4.9635      1.00000
    271      -4.9522      1.00000
    272      -4.9499      1.00000
    273      -4.9454      1.00000
    274      -4.9362      1.00000
    275      -4.9319      1.00000
    276      -4.9274      1.00000
    277      -4.9217      1.00000
    278      -4.9157      1.00000
    279      -4.9108      1.00000
    280      -4.9096      1.00000
    281      -4.8977      1.00000
    282      -4.8934      1.00000
    283      -4.8922      1.00000
    284      -4.8767      1.00000
    285      -4.8671      1.00000
    286      -4.8535      1.00000
    287      -4.8522      1.00000
    288      -4.8413      1.00000
    289      -4.8282      1.00000
    290      -4.8115      1.00000
    291      -4.8102      1.00000
    292      -4.7653      1.00000
    293      -4.7328      1.00000
    294      -4.7304      1.00000
    295      -4.6784      1.00000
    296      -4.6496      1.00000
    297      -4.6106      1.00000
    298      -4.5699      1.00000
    299      -4.5641      1.00000
    300      -4.5508      1.00000
    301      -4.5053      1.00000
    302      -4.4853      1.00000
    303      -4.3942      1.00000
    304      -4.3391      1.00000
    305      -4.3066      1.00000
    306      -4.2973      1.00000
    307      -4.2290      1.00000
    308      -4.2201      1.00000
    309      -4.1954      1.00000
    310      -4.0797      1.00000
    311      -4.0793      1.00000
    312      -4.0149      1.00000
    313      -3.8467      1.00000
    314      -3.8213      1.00000
    315      -3.7989      1.00000
    316      -3.7115      1.00000
    317      -3.6960      1.00000
    318      -3.6310      1.00000
    319      -3.5896      1.00000
    320      -3.5366      1.00000
    321      -3.4789      1.00000
    322      -3.4680      1.00000
    323      -3.3036      1.00000
    324      -3.2302      1.00000
    325      -3.2192      1.00000
    326      -3.1472      1.00000
    327      -3.1338      1.00000
    328      -3.1098      1.00000
    329      -3.1060      1.00000
    330      -3.0833      1.00000
    331      -3.0587      1.00000
    332      -3.0566      1.00000
    333      -3.0239      1.00000
    334      -3.0182      1.00000
    335      -2.9699      1.00000
    336      -2.9634      1.00000
    337      -2.9598      1.00000
    338      -2.9227      1.00000
    339      -2.9155      1.00000
    340      -2.9079      1.00000
    341      -2.8835      1.00000
    342      -2.8723      1.00000
    343      -2.8410      1.00000
    344      -2.8402      1.00000
    345      -2.8325      1.00000
    346      -2.8127      1.00000
    347      -2.8073      1.00000
    348      -2.7970      1.00000
    349      -2.7779      1.00000
    350      -2.7764      1.00000
    351      -2.7668      1.00000
    352      -2.7635      1.00000
    353      -2.7375      1.00000
    354      -2.7249      1.00000
    355      -2.7230      1.00000
    356      -2.6946      1.00000
    357      -2.6929      1.00000
    358      -2.6858      1.00000
    359      -2.6746      1.00000
    360      -2.6574      1.00000
    361      -2.6301      1.00000
    362      -2.6243      1.00000
    363      -2.6103      1.00000
    364      -2.6094      1.00000
    365      -2.5683      1.00000
    366      -2.5350      1.00000
    367      -2.4450      1.00000
    368      -2.4088      1.00000
    369      -2.3908      1.00000
    370      -2.3517      1.00000
    371      -2.2739      1.00000
    372      -2.2288      1.00000
    373      -2.2276      1.00000
    374      -2.1799      1.00000
    375      -2.1497      1.00000
    376      -2.1302      1.00000
    377      -2.1158      1.00000
    378      -2.1104      1.00000
    379      -2.0601      1.00000
    380      -2.0430      1.00000
    381      -1.9746      1.00000
    382      -1.9086      1.00000
    383      -1.6096      1.00000
    384      -1.4869      1.00000
    385      -1.4505      1.00000
    386      -1.3862      1.00000
    387      -1.3301      1.00000
    388      -1.3039      1.00000
    389      -1.2583      1.00000
    390      -1.2475      1.00000
    391      -1.2307      1.00000
    392      -1.1977      1.00000
    393      -1.1912      1.00000
    394      -1.1390      1.00000
    395      -1.0925      1.00000
    396      -1.0657      1.00000
    397      -1.0112      1.00000
    398      -1.0107      1.00000
    399      -0.9991      1.00000
    400      -0.9770      1.00000
    401      -0.9433      1.00000
    402      -0.9430      1.00000
    403      -0.9079      1.00000
    404      -0.9077      1.00000
    405      -0.8732      1.00000
    406      -0.8686      1.00000
    407      -0.8389      1.00000
    408      -0.8255      1.00000
    409      -0.7951      1.00000
    410      -0.7895      1.00000
    411      -0.7865      1.00000
    412      -0.7717      1.00000
    413      -0.7348      1.00000
    414      -0.6678      1.00000
    415      -0.6629      1.00000
    416      -0.6287      1.00000
    417      -0.6117      1.00000
    418      -0.6077      1.00000
    419      -0.5687      1.00000
    420      -0.5420      1.00000
    421      -0.5416      1.00000
    422      -0.5249      1.00000
    423      -0.5245      1.00000
    424      -0.5131      1.00000
    425      -0.4829      1.00000
    426      -0.4716      1.00000
    427      -0.4495      1.00000
    428      -0.4448      1.00000
    429      -0.4075      1.00000
    430      -0.3710      1.00000
    431      -0.3682      1.00000
    432      -0.3028      1.00000
    433      -0.3006      1.00000
    434      -0.2465      1.00000
    435      -0.2398      1.00000
    436      -0.2138      1.00000
    437      -0.1994      1.00000
    438      -0.1888      1.00000
    439      -0.1725      1.00000
    440      -0.1524      1.00000
    441      -0.1296      1.00000
    442      -0.1203      1.00000
    443      -0.1177      1.00000
    444      -0.1080      1.00000
    445      -0.0940      1.00000
    446      -0.0913      1.00000
    447      -0.0690      1.00000
    448      -0.0574      1.00000
    449      -0.0403      1.00000
    450      -0.0264      1.00000
    451      -0.0141      1.00000
    452       0.0007      1.00000
    453       0.0091      1.00000
    454       0.0319      1.00000
    455       0.0465      1.00000
    456       0.0696      1.00000
    457       0.0797      1.00000
    458       0.1195      1.00000
    459       0.1199      1.00000
    460       0.1558      1.00000
    461       0.1561      1.00000
    462       0.1764      1.00000
    463       0.1916      1.00000
    464       0.1922      1.00000
    465       0.2126      1.00000
    466       0.2143      1.00000
    467       0.2321      1.00000
    468       0.2497      1.00000
    469       0.2547      1.00000
    470       0.2646      1.00000
    471       0.2750      1.00000
    472       0.2804      1.00000
    473       0.3006      1.00000
    474       0.3189      1.00000
    475       0.3290      1.00000
    476       0.3429      1.00000
    477       0.3542      1.00000
    478       0.3559      1.00000
    479       0.3834      1.00000
    480       0.3872      1.00000
    481       0.4220      1.00000
    482       0.4563      1.00000
    483       0.4892      1.00000
    484       0.5433      1.00000
    485       0.5693      1.00000
    486       0.5866      1.00000
    487       0.6013      1.00000
    488       0.6214      1.00000
    489       0.6554      1.00000
    490       0.6883      1.00000
    491       0.6885      1.00000
    492       0.7097      1.00000
    493       0.7206      1.00000
    494       0.7500      1.00000
    495       0.7742      1.00000
    496       0.8144      1.00000
    497       0.8336      1.00000
    498       0.8342      1.00000
    499       0.8463      1.00000
    500       0.8522      1.00000
    501       0.8688      1.00000
    502       0.8786      1.00000
    503       0.8966      1.00000
    504       0.9298      1.00000
    505       0.9513      1.00000
    506       0.9919      1.00000
    507       1.0010      1.00000
    508       1.0161      1.00000
    509       1.0838      1.00000
    510       1.0857      1.00000
    511       1.1048      1.00000
    512       1.1113      1.00000
    513       1.1271      1.00000
    514       1.1339      1.00000
    515       1.1615      1.00000
    516       1.1809      1.00000
    517       1.1812      1.00000
    518       1.1959      1.00000
    519       1.2162      1.00000
    520       1.2279      1.00000
    521       1.2682      1.00000
    522       1.2781      1.00000
    523       1.2856      1.00000
    524       1.2986      1.00000
    525       1.3319      1.00000
    526       1.3333      1.00000
    527       1.3629      1.00000
    528       1.3787      1.00000
    529       1.3836      1.00000
    530       1.4004      1.00000
    531       1.4114      1.00000
    532       1.4321      1.00000
    533       1.4361      1.00000
    534       1.4706      1.00000
    535       1.4795      1.00000
    536       1.4937      1.00000
    537       1.5077      1.00000
    538       1.5197      1.00000
    539       1.5301      1.00000
    540       1.5333      1.00000
    541       1.5795      1.00000
    542       1.6103      1.00000
    543       1.6173      1.00000
    544       1.6315      1.00000
    545       1.6445      1.00000
    546       1.6630      1.00000
    547       1.7051      1.00000
    548       1.7068      1.00000
    549       1.7264      1.00000
    550       1.7315      1.00000
    551       1.7379      1.00000
    552       1.7478      1.00000
    553       1.7579      1.00000
    554       1.7707      1.00000
    555       1.7769      1.00000
    556       1.7854      1.00000
    557       1.8023      1.00000
    558       1.8092      1.00000
    559       1.8230      1.00000
    560       1.8256      1.00000
    561       1.8476      1.00000
    562       1.8567      1.00000
    563       1.8673      1.00000
    564       1.8768      1.00000
    565       1.8959      1.00000
    566       1.9020      1.00000
    567       1.9192      1.00000
    568       1.9317      1.00000
    569       1.9394      1.00000
    570       1.9459      1.00000
    571       1.9495      1.00000
    572       1.9624      1.00000
    573       2.0031      1.00000
    574       2.0094      1.00000
    575       2.0266      1.00000
    576       2.0273      1.00000
    577       2.0593      1.00000
    578       2.2319      1.00000
    579       2.3783      1.00000
    580       8.0891      0.00000
    581       8.7647      0.00000
    582       8.8149      0.00000
    583       8.8254      0.00000
    584       8.9069      0.00000
    585       9.3749      0.00000
    586       9.4327      0.00000
    587       9.4405      0.00000
    588       9.4620      0.00000
    589       9.4981      0.00000
    590       9.9219      0.00000
    591       9.9454      0.00000
    592      10.0558      0.00000
    593      10.1163      0.00000
    594      10.1212      0.00000
    595      10.2130      0.00000
    596      10.3413      0.00000
    597      10.3658      0.00000
    598      10.3843      0.00000
    599      10.4108      0.00000
    600      10.4178      0.00000
    601      10.4577      0.00000
    602      10.5620      0.00000
    603      10.5821      0.00000
    604      10.7403      0.00000
    605      10.7841      0.00000
    606      10.8041      0.00000
    607      10.8208      0.00000
    608      10.8810      0.00000
    609      10.9011      0.00000
    610      10.9361      0.00000
    611      10.9398      0.00000
    612      10.9496      0.00000
    613      10.9979      0.00000
    614      11.0348      0.00000
    615      11.0411      0.00000
    616      11.0721      0.00000
    617      11.0765      0.00000
    618      11.0899      0.00000
    619      11.1032      0.00000
    620      11.1254      0.00000
    621      11.1396      0.00000
    622      11.1530      0.00000
    623      11.1976      0.00000
    624      11.2776      0.00000
    625      11.2966      0.00000
    626      11.3090      0.00000
    627      11.3132      0.00000
    628      11.3258      0.00000
    629      11.3572      0.00000
    630      11.3577      0.00000
    631      11.4020      0.00000
    632      11.4132      0.00000
    633      11.4243      0.00000
    634      11.4686      0.00000
    635      11.4807      0.00000
    636      11.5155      0.00000
    637      11.5316      0.00000
    638      11.5584      0.00000
    639      11.6084      0.00000
    640      11.6262      0.00000
    641      11.6446      0.00000
    642      11.6885      0.00000
    643      11.7298      0.00000
    644      11.7359      0.00000
    645      11.7398      0.00000
    646      11.7585      0.00000
    647      11.7793      0.00000
    648      11.8067      0.00000
    649      11.8195      0.00000
    650      11.8522      0.00000
    651      11.8604      0.00000
    652      11.8992      0.00000
    653      11.9142      0.00000
    654      11.9160      0.00000
    655      11.9421      0.00000
    656      11.9604      0.00000
    657      11.9647      0.00000
    658      11.9935      0.00000
    659      11.9945      0.00000
    660      12.0365      0.00000
    661      12.0813      0.00000
    662      12.1124      0.00000
    663      12.1944      0.00000
    664      12.2153      0.00000
    665      12.2383      0.00000
    666      12.2430      0.00000
    667      12.3380      0.00000
    668      12.4152      0.00000
    669      12.4458      0.00000
    670      12.4726      0.00000
    671      12.4977      0.00000
    672      12.5231      0.00000
    673      12.5545      0.00000
    674      12.5971      0.00000
    675      12.6197      0.00000
    676      12.6403      0.00000
    677      12.6417      0.00000
    678      12.7390      0.00000
    679      12.7671      0.00000
    680      12.7951      0.00000
    681      12.8182      0.00000
    682      12.8338      0.00000
    683      12.8388      0.00000
    684      12.8639      0.00000
    685      12.9289      0.00000
    686      13.1160      0.00000
    687      13.1617      0.00000
    688      13.1625      0.00000
    689      13.2079      0.00000
    690      13.2302      0.00000
    691      13.2507      0.00000
    692      13.2983      0.00000
    693      13.3093      0.00000
    694      13.3478      0.00000
    695      13.3638      0.00000
    696      13.4342      0.00000

 k-point     5 :      -0.3333    0.0000    0.3333
  band No.  band energies     occupation 
      1     -55.6359      1.00000
      2     -55.5619      1.00000
      3     -55.5617      1.00000
      4     -55.5544      1.00000
      5     -55.5516      1.00000
      6     -55.5500      1.00000
      7     -55.5450      1.00000
      8     -55.5442      1.00000
      9     -55.5216      1.00000
     10     -55.5122      1.00000
     11     -55.5077      1.00000
     12     -55.5074      1.00000
     13     -55.4888      1.00000
     14     -55.4857      1.00000
     15     -55.4851      1.00000
     16     -55.4816      1.00000
     17     -55.4712      1.00000
     18     -55.4646      1.00000
     19     -55.4524      1.00000
     20     -55.4294      1.00000
     21     -55.4283      1.00000
     22     -55.4280      1.00000
     23     -55.4273      1.00000
     24     -55.4270      1.00000
     25     -55.4181      1.00000
     26     -55.4173      1.00000
     27     -55.4170      1.00000
     28     -55.4158      1.00000
     29     -55.4067      1.00000
     30     -55.4065      1.00000
     31     -55.3881      1.00000
     32     -55.3840      1.00000
     33     -55.3832      1.00000
     34     -55.3773      1.00000
     35     -55.3694      1.00000
     36     -55.3693      1.00000
     37     -55.3550      1.00000
     38     -55.3545      1.00000
     39     -55.3503      1.00000
     40     -55.3445      1.00000
     41     -55.3391      1.00000
     42     -55.3251      1.00000
     43     -55.3242      1.00000
     44     -55.3223      1.00000
     45     -55.3208      1.00000
     46     -55.3116      1.00000
     47     -55.3111      1.00000
     48     -55.3077      1.00000
     49     -55.3014      1.00000
     50     -55.2958      1.00000
     51     -55.2868      1.00000
     52     -55.2863      1.00000
     53     -55.2840      1.00000
     54     -55.2829      1.00000
     55     -55.2735      1.00000
     56     -55.2730      1.00000
     57     -55.2702      1.00000
     58     -55.2682      1.00000
     59     -55.2586      1.00000
     60     -55.2578      1.00000
     61     -55.2552      1.00000
     62     -55.2542      1.00000
     63     -55.2293      1.00000
     64     -55.2283      1.00000
     65     -55.2104      1.00000
     66     -55.2100      1.00000
     67     -55.2093      1.00000
     68     -55.2074      1.00000
     69     -55.2066      1.00000
     70     -51.8424      1.00000
     71     -50.3976      1.00000
     72     -50.1066      1.00000
     73     -18.9646      1.00000
     74     -18.8055      1.00000
     75     -18.7478      1.00000
     76     -18.6509      1.00000
     77     -18.5050      1.00000
     78     -18.4445      1.00000
     79     -18.4200      1.00000
     80     -18.4192      1.00000
     81     -18.3823      1.00000
     82     -18.3648      1.00000
     83     -18.3614      1.00000
     84     -18.3382      1.00000
     85     -18.3253      1.00000
     86     -18.3081      1.00000
     87     -18.2841      1.00000
     88     -18.2475      1.00000
     89     -18.2360      1.00000
     90     -18.2112      1.00000
     91     -18.2088      1.00000
     92     -18.2026      1.00000
     93     -18.1935      1.00000
     94     -18.1836      1.00000
     95     -18.1767      1.00000
     96     -18.1493      1.00000
     97     -18.1270      1.00000
     98     -18.1193      1.00000
     99     -18.0786      1.00000
    100     -16.3528      1.00000
    101     -16.1921      1.00000
    102     -16.1757      1.00000
    103     -16.1497      1.00000
    104     -16.1425      1.00000
    105     -16.1330      1.00000
    106     -16.1199      1.00000
    107     -16.1165      1.00000
    108     -16.0949      1.00000
    109     -16.0876      1.00000
    110     -16.0855      1.00000
    111     -16.0722      1.00000
    112     -16.0595      1.00000
    113     -16.0579      1.00000
    114     -16.0494      1.00000
    115     -16.0372      1.00000
    116     -16.0233      1.00000
    117     -16.0184      1.00000
    118     -16.0137      1.00000
    119     -16.0018      1.00000
    120     -15.9814      1.00000
    121     -15.9804      1.00000
    122     -15.9676      1.00000
    123     -15.9428      1.00000
    124     -15.9378      1.00000
    125     -15.9281      1.00000
    126     -15.8916      1.00000
    127     -15.8417      1.00000
    128     -15.8316      1.00000
    129     -15.8310      1.00000
    130     -15.8148      1.00000
    131     -15.8130      1.00000
    132     -15.8004      1.00000
    133     -15.7974      1.00000
    134     -15.7961      1.00000
    135     -15.7782      1.00000
    136     -15.7749      1.00000
    137     -15.7612      1.00000
    138     -15.7577      1.00000
    139     -15.7502      1.00000
    140     -15.7431      1.00000
    141     -15.7373      1.00000
    142     -15.7364      1.00000
    143     -15.7333      1.00000
    144     -15.7278      1.00000
    145     -15.7213      1.00000
    146     -15.7109      1.00000
    147     -15.7060      1.00000
    148     -15.6928      1.00000
    149     -15.6908      1.00000
    150     -15.6744      1.00000
    151     -15.6701      1.00000
    152     -15.6645      1.00000
    153     -15.6531      1.00000
    154     -15.6415      1.00000
    155     -15.6382      1.00000
    156     -15.6316      1.00000
    157     -15.6227      1.00000
    158     -15.6150      1.00000
    159     -15.6074      1.00000
    160     -15.6017      1.00000
    161     -15.6015      1.00000
    162     -15.5931      1.00000
    163     -15.5904      1.00000
    164     -15.5872      1.00000
    165     -15.5748      1.00000
    166     -15.5696      1.00000
    167     -15.5524      1.00000
    168     -15.5315      1.00000
    169     -15.4928      1.00000
    170     -15.4872      1.00000
    171     -15.4498      1.00000
    172      -7.0347      1.00000
    173      -6.8945      1.00000
    174      -6.8597      1.00000
    175      -6.8527      1.00000
    176      -6.8441      1.00000
    177      -6.8245      1.00000
    178      -6.8216      1.00000
    179      -6.7956      1.00000
    180      -6.7948      1.00000
    181      -6.7379      1.00000
    182      -6.7332      1.00000
    183      -6.7031      1.00000
    184      -6.6429      1.00000
    185      -6.5508      1.00000
    186      -6.5296      1.00000
    187      -6.5220      1.00000
    188      -6.5171      1.00000
    189      -6.4724      1.00000
    190      -6.4321      1.00000
    191      -6.4092      1.00000
    192      -6.3563      1.00000
    193      -6.3393      1.00000
    194      -6.2821      1.00000
    195      -6.1155      1.00000
    196      -6.0441      1.00000
    197      -5.9946      1.00000
    198      -5.9818      1.00000
    199      -5.9758      1.00000
    200      -5.9488      1.00000
    201      -5.9456      1.00000
    202      -5.9200      1.00000
    203      -5.9119      1.00000
    204      -5.8908      1.00000
    205      -5.8593      1.00000
    206      -5.8454      1.00000
    207      -5.8252      1.00000
    208      -5.8171      1.00000
    209      -5.7995      1.00000
    210      -5.7839      1.00000
    211      -5.7778      1.00000
    212      -5.7719      1.00000
    213      -5.7248      1.00000
    214      -5.6618      1.00000
    215      -5.6297      1.00000
    216      -5.6026      1.00000
    217      -5.5774      1.00000
    218      -5.5488      1.00000
    219      -5.4865      1.00000
    220      -5.4747      1.00000
    221      -5.4243      1.00000
    222      -5.3790      1.00000
    223      -5.3555      1.00000
    224      -5.2860      1.00000
    225      -5.2722      1.00000
    226      -5.2452      1.00000
    227      -5.2356      1.00000
    228      -5.2272      1.00000
    229      -5.2150      1.00000
    230      -5.2089      1.00000
    231      -5.2073      1.00000
    232      -5.1995      1.00000
    233      -5.1929      1.00000
    234      -5.1835      1.00000
    235      -5.1700      1.00000
    236      -5.1634      1.00000
    237      -5.1527      1.00000
    238      -5.1508      1.00000
    239      -5.1442      1.00000
    240      -5.1339      1.00000
    241      -5.1244      1.00000
    242      -5.1173      1.00000
    243      -5.1156      1.00000
    244      -5.0954      1.00000
    245      -5.0929      1.00000
    246      -5.0900      1.00000
    247      -5.0775      1.00000
    248      -5.0757      1.00000
    249      -5.0697      1.00000
    250      -5.0692      1.00000
    251      -5.0627      1.00000
    252      -5.0562      1.00000
    253      -5.0449      1.00000
    254      -5.0408      1.00000
    255      -5.0393      1.00000
    256      -5.0280      1.00000
    257      -5.0277      1.00000
    258      -5.0211      1.00000
    259      -5.0172      1.00000
    260      -5.0148      1.00000
    261      -5.0044      1.00000
    262      -5.0034      1.00000
    263      -5.0010      1.00000
    264      -4.9963      1.00000
    265      -4.9917      1.00000
    266      -4.9859      1.00000
    267      -4.9828      1.00000
    268      -4.9816      1.00000
    269      -4.9619      1.00000
    270      -4.9611      1.00000
    271      -4.9503      1.00000
    272      -4.9463      1.00000
    273      -4.9436      1.00000
    274      -4.9373      1.00000
    275      -4.9318      1.00000
    276      -4.9293      1.00000
    277      -4.9210      1.00000
    278      -4.9187      1.00000
    279      -4.9133      1.00000
    280      -4.9047      1.00000
    281      -4.8999      1.00000
    282      -4.8933      1.00000
    283      -4.8924      1.00000
    284      -4.8805      1.00000
    285      -4.8710      1.00000
    286      -4.8501      1.00000
    287      -4.8477      1.00000
    288      -4.8397      1.00000
    289      -4.8346      1.00000
    290      -4.8200      1.00000
    291      -4.8000      1.00000
    292      -4.7726      1.00000
    293      -4.7561      1.00000
    294      -4.7094      1.00000
    295      -4.6991      1.00000
    296      -4.6416      1.00000
    297      -4.6009      1.00000
    298      -4.5739      1.00000
    299      -4.5555      1.00000
    300      -4.5272      1.00000
    301      -4.5194      1.00000
    302      -4.4671      1.00000
    303      -4.4089      1.00000
    304      -4.3372      1.00000
    305      -4.2989      1.00000
    306      -4.2972      1.00000
    307      -4.2347      1.00000
    308      -4.2163      1.00000
    309      -4.1923      1.00000
    310      -4.0972      1.00000
    311      -4.0833      1.00000
    312      -4.0212      1.00000
    313      -3.8400      1.00000
    314      -3.8221      1.00000
    315      -3.8123      1.00000
    316      -3.7112      1.00000
    317      -3.7035      1.00000
    318      -3.6219      1.00000
    319      -3.5883      1.00000
    320      -3.5082      1.00000
    321      -3.4658      1.00000
    322      -3.4650      1.00000
    323      -3.3479      1.00000
    324      -3.2321      1.00000
    325      -3.1879      1.00000
    326      -3.1464      1.00000
    327      -3.1420      1.00000
    328      -3.0917      1.00000
    329      -3.0897      1.00000
    330      -3.0797      1.00000
    331      -3.0675      1.00000
    332      -3.0600      1.00000
    333      -3.0277      1.00000
    334      -3.0224      1.00000
    335      -2.9896      1.00000
    336      -2.9819      1.00000
    337      -2.9658      1.00000
    338      -2.9211      1.00000
    339      -2.9145      1.00000
    340      -2.9123      1.00000
    341      -2.8665      1.00000
    342      -2.8598      1.00000
    343      -2.8536      1.00000
    344      -2.8326      1.00000
    345      -2.8279      1.00000
    346      -2.8099      1.00000
    347      -2.8075      1.00000
    348      -2.7979      1.00000
    349      -2.7773      1.00000
    350      -2.7770      1.00000
    351      -2.7656      1.00000
    352      -2.7500      1.00000
    353      -2.7436      1.00000
    354      -2.7350      1.00000
    355      -2.7123      1.00000
    356      -2.6967      1.00000
    357      -2.6918      1.00000
    358      -2.6800      1.00000
    359      -2.6693      1.00000
    360      -2.6627      1.00000
    361      -2.6487      1.00000
    362      -2.6333      1.00000
    363      -2.6259      1.00000
    364      -2.5975      1.00000
    365      -2.5673      1.00000
    366      -2.5232      1.00000
    367      -2.4776      1.00000
    368      -2.4119      1.00000
    369      -2.3825      1.00000
    370      -2.3091      1.00000
    371      -2.2831      1.00000
    372      -2.2386      1.00000
    373      -2.2254      1.00000
    374      -2.1822      1.00000
    375      -2.1536      1.00000
    376      -2.1250      1.00000
    377      -2.1076      1.00000
    378      -2.0984      1.00000
    379      -2.0735      1.00000
    380      -2.0499      1.00000
    381      -1.9745      1.00000
    382      -1.9059      1.00000
    383      -1.5979      1.00000
    384      -1.4846      1.00000
    385      -1.4516      1.00000
    386      -1.3869      1.00000
    387      -1.3262      1.00000
    388      -1.3259      1.00000
    389      -1.2768      1.00000
    390      -1.2520      1.00000
    391      -1.2361      1.00000
    392      -1.1850      1.00000
    393      -1.1792      1.00000
    394      -1.1257      1.00000
    395      -1.0966      1.00000
    396      -1.0820      1.00000
    397      -1.0269      1.00000
    398      -1.0254      1.00000
    399      -0.9933      1.00000
    400      -0.9799      1.00000
    401      -0.9559      1.00000
    402      -0.9168      1.00000
    403      -0.8968      1.00000
    404      -0.8918      1.00000
    405      -0.8591      1.00000
    406      -0.8434      1.00000
    407      -0.8407      1.00000
    408      -0.8275      1.00000
    409      -0.7965      1.00000
    410      -0.7879      1.00000
    411      -0.7813      1.00000
    412      -0.7537      1.00000
    413      -0.7385      1.00000
    414      -0.6844      1.00000
    415      -0.6844      1.00000
    416      -0.6528      1.00000
    417      -0.6356      1.00000
    418      -0.6245      1.00000
    419      -0.5702      1.00000
    420      -0.5680      1.00000
    421      -0.5436      1.00000
    422      -0.5227      1.00000
    423      -0.5073      1.00000
    424      -0.5040      1.00000
    425      -0.4858      1.00000
    426      -0.4667      1.00000
    427      -0.4639      1.00000
    428      -0.4103      1.00000
    429      -0.4096      1.00000
    430      -0.3612      1.00000
    431      -0.3427      1.00000
    432      -0.3017      1.00000
    433      -0.2755      1.00000
    434      -0.2530      1.00000
    435      -0.2286      1.00000
    436      -0.2217      1.00000
    437      -0.2068      1.00000
    438      -0.1892      1.00000
    439      -0.1752      1.00000
    440      -0.1587      1.00000
    441      -0.1545      1.00000
    442      -0.1250      1.00000
    443      -0.1194      1.00000
    444      -0.1037      1.00000
    445      -0.0975      1.00000
    446      -0.0835      1.00000
    447      -0.0657      1.00000
    448      -0.0351      1.00000
    449      -0.0329      1.00000
    450      -0.0107      1.00000
    451      -0.0097      1.00000
    452       0.0060      1.00000
    453       0.0066      1.00000
    454       0.0383      1.00000
    455       0.0385      1.00000
    456       0.0553      1.00000
    457       0.0637      1.00000
    458       0.1030      1.00000
    459       0.1305      1.00000
    460       0.1524      1.00000
    461       0.1627      1.00000
    462       0.1759      1.00000
    463       0.1904      1.00000
    464       0.1926      1.00000
    465       0.2027      1.00000
    466       0.2190      1.00000
    467       0.2250      1.00000
    468       0.2323      1.00000
    469       0.2457      1.00000
    470       0.2608      1.00000
    471       0.2748      1.00000
    472       0.2777      1.00000
    473       0.2780      1.00000
    474       0.3140      1.00000
    475       0.3359      1.00000
    476       0.3463      1.00000
    477       0.3530      1.00000
    478       0.3716      1.00000
    479       0.4090      1.00000
    480       0.4187      1.00000
    481       0.4451      1.00000
    482       0.4552      1.00000
    483       0.4945      1.00000
    484       0.5555      1.00000
    485       0.5671      1.00000
    486       0.5801      1.00000
    487       0.5981      1.00000
    488       0.6246      1.00000
    489       0.6288      1.00000
    490       0.6602      1.00000
    491       0.6681      1.00000
    492       0.7080      1.00000
    493       0.7177      1.00000
    494       0.7593      1.00000
    495       0.7929      1.00000
    496       0.8057      1.00000
    497       0.8255      1.00000
    498       0.8415      1.00000
    499       0.8440      1.00000
    500       0.8541      1.00000
    501       0.8787      1.00000
    502       0.8899      1.00000
    503       0.9060      1.00000
    504       0.9220      1.00000
    505       0.9500      1.00000
    506       0.9835      1.00000
    507       0.9946      1.00000
    508       1.0192      1.00000
    509       1.0489      1.00000
    510       1.0889      1.00000
    511       1.1038      1.00000
    512       1.1212      1.00000
    513       1.1272      1.00000
    514       1.1501      1.00000
    515       1.1717      1.00000
    516       1.1789      1.00000
    517       1.1954      1.00000
    518       1.2042      1.00000
    519       1.2136      1.00000
    520       1.2207      1.00000
    521       1.2536      1.00000
    522       1.2585      1.00000
    523       1.2881      1.00000
    524       1.2952      1.00000
    525       1.3198      1.00000
    526       1.3463      1.00000
    527       1.3676      1.00000
    528       1.3838      1.00000
    529       1.4013      1.00000
    530       1.4046      1.00000
    531       1.4110      1.00000
    532       1.4199      1.00000
    533       1.4290      1.00000
    534       1.4712      1.00000
    535       1.4896      1.00000
    536       1.4954      1.00000
    537       1.5103      1.00000
    538       1.5122      1.00000
    539       1.5439      1.00000
    540       1.5564      1.00000
    541       1.5681      1.00000
    542       1.5888      1.00000
    543       1.6104      1.00000
    544       1.6422      1.00000
    545       1.6434      1.00000
    546       1.6668      1.00000
    547       1.6852      1.00000
    548       1.6968      1.00000
    549       1.7051      1.00000
    550       1.7408      1.00000
    551       1.7443      1.00000
    552       1.7653      1.00000
    553       1.7691      1.00000
    554       1.7734      1.00000
    555       1.7857      1.00000
    556       1.7861      1.00000
    557       1.8005      1.00000
    558       1.8138      1.00000
    559       1.8161      1.00000
    560       1.8313      1.00000
    561       1.8468      1.00000
    562       1.8502      1.00000
    563       1.8742      1.00000
    564       1.8821      1.00000
    565       1.8984      1.00000
    566       1.8985      1.00000
    567       1.9102      1.00000
    568       1.9204      1.00000
    569       1.9259      1.00000
    570       1.9415      1.00000
    571       1.9472      1.00000
    572       1.9735      1.00000
    573       2.0000      1.00000
    574       2.0121      1.00000
    575       2.0235      1.00000
    576       2.0490      1.00000
    577       2.0543      1.00000
    578       2.2343      1.00000
    579       2.3735      1.00000
    580       8.0886      0.00000
    581       8.7656      0.00000
    582       8.8179      0.00000
    583       8.8290      0.00000
    584       8.9168      0.00000
    585       9.3520      0.00000
    586       9.4134      0.00000
    587       9.4353      0.00000
    588       9.4812      0.00000
    589       9.4929      0.00000
    590       9.9156      0.00000
    591       9.9515      0.00000
    592      10.0670      0.00000
    593      10.1177      0.00000
    594      10.1438      0.00000
    595      10.2159      0.00000
    596      10.3291      0.00000
    597      10.3654      0.00000
    598      10.3744      0.00000
    599      10.3953      0.00000
    600      10.4187      0.00000
    601      10.4565      0.00000
    602      10.5766      0.00000
    603      10.5875      0.00000
    604      10.7679      0.00000
    605      10.7848      0.00000
    606      10.8017      0.00000
    607      10.8025      0.00000
    608      10.8612      0.00000
    609      10.8889      0.00000
    610      10.9321      0.00000
    611      10.9461      0.00000
    612      10.9464      0.00000
    613      11.0009      0.00000
    614      11.0289      0.00000
    615      11.0297      0.00000
    616      11.0712      0.00000
    617      11.0753      0.00000
    618      11.0981      0.00000
    619      11.1008      0.00000
    620      11.1247      0.00000
    621      11.1671      0.00000
    622      11.1777      0.00000
    623      11.1955      0.00000
    624      11.2647      0.00000
    625      11.2780      0.00000
    626      11.2900      0.00000
    627      11.3010      0.00000
    628      11.3588      0.00000
    629      11.3757      0.00000
    630      11.3901      0.00000
    631      11.4036      0.00000
    632      11.4133      0.00000
    633      11.4347      0.00000
    634      11.4439      0.00000
    635      11.4864      0.00000
    636      11.5046      0.00000
    637      11.5448      0.00000
    638      11.5730      0.00000
    639      11.5892      0.00000
    640      11.6215      0.00000
    641      11.6274      0.00000
    642      11.6518      0.00000
    643      11.7145      0.00000
    644      11.7216      0.00000
    645      11.7439      0.00000
    646      11.7548      0.00000
    647      11.7841      0.00000
    648      11.7971      0.00000
    649      11.8089      0.00000
    650      11.8697      0.00000
    651      11.8882      0.00000
    652      11.8984      0.00000
    653      11.9116      0.00000
    654      11.9362      0.00000
    655      11.9468      0.00000
    656      11.9739      0.00000
    657      11.9752      0.00000
    658      11.9982      0.00000
    659      12.0237      0.00000
    660      12.0244      0.00000
    661      12.1142      0.00000
    662      12.1151      0.00000
    663      12.1740      0.00000
    664      12.2021      0.00000
    665      12.2296      0.00000
    666      12.2458      0.00000
    667      12.3017      0.00000
    668      12.4054      0.00000
    669      12.4418      0.00000
    670      12.4599      0.00000
    671      12.4892      0.00000
    672      12.5237      0.00000
    673      12.5733      0.00000
    674      12.6017      0.00000
    675      12.6208      0.00000
    676      12.6588      0.00000
    677      12.6822      0.00000
    678      12.7302      0.00000
    679      12.7546      0.00000
    680      12.7842      0.00000
    681      12.7864      0.00000
    682      12.8278      0.00000
    683      12.8448      0.00000
    684      12.8919      0.00000
    685      12.9153      0.00000
    686      13.1087      0.00000
    687      13.1691      0.00000
    688      13.1880      0.00000
    689      13.2087      0.00000
    690      13.2456      0.00000
    691      13.2484      0.00000
    692      13.2952      0.00000
    693      13.3067      0.00000
    694      13.3398      0.00000
    695      13.3822      0.00000
    696      13.4229      0.00000
 Fermi energy:         3.6536974101

 spin component 2

 k-point     1 :       0.0000    0.0000    0.0000
  band No.  band energies     occupation 
      1     -50.5944      1.00000
      2     -50.5717      1.00000
      3     -50.5190      1.00000
      4     -50.5186      1.00000
      5     -50.5040      1.00000
      6     -50.5024      1.00000
      7     -50.5006      1.00000
      8     -50.4999      1.00000
      9     -50.4805      1.00000
     10     -50.4764      1.00000
     11     -50.4726      1.00000
     12     -50.4634      1.00000
     13     -50.4594      1.00000
     14     -50.4591      1.00000
     15     -50.4395      1.00000
     16     -50.4383      1.00000
     17     -50.4378      1.00000
     18     -50.4333      1.00000
     19     -50.4292      1.00000
     20     -50.4104      1.00000
     21     -50.4098      1.00000
     22     -50.4095      1.00000
     23     -50.4091      1.00000
     24     -50.4089      1.00000
     25     -50.4086      1.00000
     26     -50.4052      1.00000
     27     -50.3891      1.00000
     28     -50.3812      1.00000
     29     -50.3807      1.00000
     30     -50.3797      1.00000
     31     -50.3789      1.00000
     32     -50.3779      1.00000
     33     -50.3704      1.00000
     34     -50.3627      1.00000
     35     -50.3626      1.00000
     36     -50.3498      1.00000
     37     -50.3490      1.00000
     38     -50.3484      1.00000
     39     -50.3479      1.00000
     40     -50.3441      1.00000
     41     -50.3382      1.00000
     42     -50.3275      1.00000
     43     -50.3270      1.00000
     44     -50.3268      1.00000
     45     -50.3261      1.00000
     46     -50.3257      1.00000
     47     -50.3256      1.00000
     48     -50.3040      1.00000
     49     -50.3019      1.00000
     50     -50.2947      1.00000
     51     -50.2868      1.00000
     52     -50.2865      1.00000
     53     -50.2824      1.00000
     54     -50.2813      1.00000
     55     -50.2716      1.00000
     56     -50.2712      1.00000
     57     -50.2687      1.00000
     58     -50.2653      1.00000
     59     -50.2607      1.00000
     60     -50.2599      1.00000
     61     -50.2538      1.00000
     62     -50.2529      1.00000
     63     -50.2208      1.00000
     64     -50.2197      1.00000
     65     -50.2172      1.00000
     66     -50.2062      1.00000
     67     -50.2055      1.00000
     68     -50.2005      1.00000
     69     -50.1997      1.00000
     70     -46.8804      1.00000
     71     -46.4267      1.00000
     72     -46.3272      1.00000
     73     -18.9338      1.00000
     74     -18.7943      1.00000
     75     -18.7349      1.00000
     76     -18.4845      1.00000
     77     -18.3632      1.00000
     78     -18.2880      1.00000
     79     -18.2619      1.00000
     80     -18.1876      1.00000
     81     -18.1716      1.00000
     82     -18.1386      1.00000
     83     -18.1159      1.00000
     84     -18.1153      1.00000
     85     -18.1087      1.00000
     86     -18.1035      1.00000
     87     -18.0956      1.00000
     88     -18.0834      1.00000
     89     -18.0697      1.00000
     90     -18.0547      1.00000
     91     -18.0458      1.00000
     92     -18.0169      1.00000
     93     -17.9838      1.00000
     94     -17.9797      1.00000
     95     -17.9787      1.00000
     96     -17.9337      1.00000
     97     -17.9312      1.00000
     98     -17.9149      1.00000
     99     -17.8766      1.00000
    100     -16.1138      1.00000
    101     -15.9817      1.00000
    102     -15.9694      1.00000
    103     -15.9533      1.00000
    104     -15.9348      1.00000
    105     -15.9273      1.00000
    106     -15.9144      1.00000
    107     -15.8872      1.00000
    108     -15.8645      1.00000
    109     -15.8468      1.00000
    110     -15.8182      1.00000
    111     -15.8161      1.00000
    112     -15.7959      1.00000
    113     -15.7820      1.00000
    114     -15.7813      1.00000
    115     -15.7802      1.00000
    116     -15.7737      1.00000
    117     -15.7733      1.00000
    118     -15.7679      1.00000
    119     -15.7652      1.00000
    120     -15.7311      1.00000
    121     -15.7067      1.00000
    122     -15.6894      1.00000
    123     -15.6799      1.00000
    124     -15.6603      1.00000
    125     -15.6542      1.00000
    126     -15.6367      1.00000
    127     -15.6360      1.00000
    128     -15.6340      1.00000
    129     -15.6176      1.00000
    130     -15.5966      1.00000
    131     -15.5877      1.00000
    132     -15.5601      1.00000
    133     -15.5513      1.00000
    134     -15.5395      1.00000
    135     -15.5247      1.00000
    136     -15.5130      1.00000
    137     -15.5113      1.00000
    138     -15.4952      1.00000
    139     -15.4827      1.00000
    140     -15.4810      1.00000
    141     -15.4789      1.00000
    142     -15.4645      1.00000
    143     -15.4634      1.00000
    144     -15.4571      1.00000
    145     -15.4556      1.00000
    146     -15.4486      1.00000
    147     -15.4377      1.00000
    148     -15.4246      1.00000
    149     -15.4221      1.00000
    150     -15.4161      1.00000
    151     -15.4075      1.00000
    152     -15.4043      1.00000
    153     -15.4026      1.00000
    154     -15.3956      1.00000
    155     -15.3905      1.00000
    156     -15.3845      1.00000
    157     -15.3823      1.00000
    158     -15.3681      1.00000
    159     -15.3600      1.00000
    160     -15.3408      1.00000
    161     -15.3401      1.00000
    162     -15.3301      1.00000
    163     -15.3290      1.00000
    164     -15.3189      1.00000
    165     -15.3142      1.00000
    166     -15.3040      1.00000
    167     -15.3037      1.00000
    168     -15.2663      1.00000
    169     -15.2623      1.00000
    170     -15.2130      1.00000
    171     -15.2015      1.00000
    172      -6.1943      1.00000
    173      -6.0156      1.00000
    174      -5.9795      1.00000
    175      -5.7381      1.00000
    176      -5.6866      1.00000
    177      -5.6315      1.00000
    178      -5.6178      1.00000
    179      -5.5853      1.00000
    180      -5.5561      1.00000
    181      -5.5408      1.00000
    182      -5.5266      1.00000
    183      -5.5234      1.00000
    184      -5.4715      1.00000
    185      -5.4369      1.00000
    186      -5.4189      1.00000
    187      -5.4161      1.00000
    188      -5.4147      1.00000
    189      -5.4041      1.00000
    190      -5.3867      1.00000
    191      -5.3444      1.00000
    192      -5.3255      1.00000
    193      -5.1914      1.00000
    194      -5.1785      1.00000
    195      -5.1696      1.00000
    196      -4.3392      1.00000
    197      -4.1321      1.00000
    198      -4.0931      1.00000
    199      -3.9833      1.00000
    200      -3.8730      1.00000
    201      -3.8370      1.00000
    202      -3.7540      1.00000
    203      -3.7093      1.00000
    204      -3.6918      1.00000
    205      -3.6685      1.00000
    206      -3.6373      1.00000
    207      -3.6155      1.00000
    208      -3.6018      1.00000
    209      -3.5788      1.00000
    210      -3.5744      1.00000
    211      -3.5471      1.00000
    212      -3.5295      1.00000
    213      -3.5278      1.00000
    214      -3.4904      1.00000
    215      -3.3985      1.00000
    216      -3.3969      1.00000
    217      -3.3816      1.00000
    218      -3.3338      1.00000
    219      -3.3251      1.00000
    220      -3.3107      1.00000
    221      -3.3105      1.00000
    222      -3.3004      1.00000
    223      -3.2973      1.00000
    224      -3.2883      1.00000
    225      -3.2770      1.00000
    226      -3.2557      1.00000
    227      -3.2498      1.00000
    228      -3.2352      1.00000
    229      -3.2347      1.00000
    230      -3.2192      1.00000
    231      -3.2157      1.00000
    232      -3.2137      1.00000
    233      -3.2093      1.00000
    234      -3.2082      1.00000
    235      -3.1836      1.00000
    236      -3.1763      1.00000
    237      -3.1676      1.00000
    238      -3.1067      1.00000
    239      -3.0934      1.00000
    240      -3.0867      1.00000
    241      -3.0748      1.00000
    242      -3.0476      1.00000
    243      -3.0468      1.00000
    244      -3.0088      1.00000
    245      -2.9694      1.00000
    246      -2.9559      1.00000
    247      -2.9347      1.00000
    248      -2.9261      1.00000
    249      -2.9080      1.00000
    250      -2.8802      1.00000
    251      -2.8766      1.00000
    252      -2.7979      1.00000
    253      -2.7807      1.00000
    254      -2.7658      1.00000
    255      -2.7428      1.00000
    256      -2.7410      1.00000
    257      -2.7395      1.00000
    258      -2.7198      1.00000
    259      -2.6285      1.00000
    260      -2.6110      1.00000
    261      -2.5318      1.00000
    262      -2.5116      1.00000
    263      -2.5061      1.00000
    264      -2.5047      1.00000
    265      -2.5039      1.00000
    266      -2.4863      1.00000
    267      -2.4252      1.00000
    268      -2.0544      1.00000
    269      -2.0021      1.00000
    270      -1.9842      1.00000
    271      -1.9709      1.00000
    272      -1.9594      1.00000
    273      -1.8359      1.00000
    274      -1.7878      1.00000
    275      -1.7620      1.00000
    276      -1.7558      1.00000
    277      -1.6928      1.00000
    278      -1.6815      1.00000
    279      -1.6764      1.00000
    280      -1.6649      1.00000
    281      -1.6547      1.00000
    282      -1.6411      1.00000
    283      -1.6213      1.00000
    284      -1.6015      1.00000
    285      -1.5106      1.00000
    286      -1.4917      1.00000
    287      -1.4508      1.00000
    288      -1.3170      1.00000
    289      -1.2700      1.00000
    290      -1.2532      1.00000
    291      -1.2199      1.00000
    292      -1.1791      1.00000
    293      -1.1603      1.00000
    294      -1.1253      1.00000
    295      -1.1230      1.00000
    296      -1.0772      1.00000
    297      -1.0550      1.00000
    298      -1.0315      1.00000
    299      -0.9865      1.00000
    300      -0.9694      1.00000
    301      -0.9524      1.00000
    302      -0.9429      1.00000
    303      -0.9103      1.00000
    304      -0.8991      1.00000
    305      -0.8917      1.00000
    306      -0.8790      1.00000
    307      -0.8618      1.00000
    308      -0.8097      1.00000
    309      -0.7846      1.00000
    310      -0.7696      1.00000
    311      -0.7653      1.00000
    312      -0.7584      1.00000
    313      -0.7433      1.00000
    314      -0.7398      1.00000
    315      -0.7241      1.00000
    316      -0.6921      1.00000
    317      -0.6776      1.00000
    318      -0.6696      1.00000
    319      -0.6444      1.00000
    320      -0.6221      1.00000
    321      -0.6064      1.00000
    322      -0.6001      1.00000
    323      -0.5873      1.00000
    324      -0.5805      1.00000
    325      -0.5762      1.00000
    326      -0.5542      1.00000
    327      -0.5422      1.00000
    328      -0.5139      1.00000
    329      -0.5091      1.00000
    330      -0.4842      1.00000
    331      -0.4562      1.00000
    332      -0.4096      1.00000
    333      -0.3980      1.00000
    334      -0.3784      1.00000
    335      -0.3510      1.00000
    336      -0.2879      1.00000
    337      -0.2336      1.00000
    338      -0.2066      1.00000
    339      -0.1661      1.00000
    340      -0.1260      1.00000
    341      -0.1155      1.00000
    342      -0.1070      1.00000
    343      -0.0869      1.00000
    344      -0.0754      1.00000
    345      -0.0750      1.00000
    346      -0.0339      1.00000
    347      -0.0268      1.00000
    348       0.0019      1.00000
    349       0.0078      1.00000
    350       0.0160      1.00000
    351       0.0261      1.00000
    352       0.0355      1.00000
    353       0.0447      1.00000
    354       0.0465      1.00000
    355       0.1171      1.00000
    356       0.1236      1.00000
    357       0.1375      1.00000
    358       0.1689      1.00000
    359       0.1818      1.00000
    360       0.1967      1.00000
    361       0.2167      1.00000
    362       0.2352      1.00000
    363       0.2820      1.00000
    364       0.3016      1.00000
    365       0.3074      1.00000
    366       0.3112      1.00000
    367       0.3403      1.00000
    368       0.3447      1.00000
    369       0.3555      1.00000
    370       0.3818      1.00000
    371       0.3846      1.00000
    372       0.3990      1.00000
    373       0.3991      1.00000
    374       0.4125      1.00000
    375       0.4209      1.00000
    376       0.4413      1.00000
    377       0.4748      1.00000
    378       0.4765      1.00000
    379       0.5082      1.00000
    380       0.5197      1.00000
    381       0.5200      1.00000
    382       0.5351      1.00000
    383       0.5509      1.00000
    384       0.5587      1.00000
    385       0.5931      1.00000
    386       0.6006      1.00000
    387       0.6398      1.00000
    388       0.6531      1.00000
    389       0.6556      1.00000
    390       0.6607      1.00000
    391       0.6885      1.00000
    392       0.6978      1.00000
    393       0.7428      1.00000
    394       0.7519      1.00000
    395       0.7555      1.00000
    396       0.7682      1.00000
    397       0.7727      1.00000
    398       0.8075      1.00000
    399       0.8099      1.00000
    400       0.8226      1.00000
    401       0.8333      1.00000
    402       0.8763      1.00000
    403       0.8895      1.00000
    404       0.8937      1.00000
    405       0.8957      1.00000
    406       0.9281      1.00000
    407       0.9963      1.00000
    408       1.0019      1.00000
    409       1.0561      1.00000
    410       1.0643      1.00000
    411       1.0850      1.00000
    412       1.0880      1.00000
    413       1.1281      1.00000
    414       1.1954      1.00000
    415       1.2295      1.00000
    416       1.2373      1.00000
    417       1.2451      1.00000
    418       1.2581      1.00000
    419       1.2727      1.00000
    420       1.2818      1.00000
    421       1.2881      1.00000
    422       1.2996      1.00000
    423       1.3221      1.00000
    424       1.3377      1.00000
    425       1.3476      1.00000
    426       1.3566      1.00000
    427       1.3786      1.00000
    428       1.3918      1.00000
    429       1.4227      1.00000
    430       1.4450      1.00000
    431       1.4534      1.00000
    432       1.4722      1.00000
    433       1.4735      1.00000
    434       1.4752      1.00000
    435       1.5076      1.00000
    436       1.5302      1.00000
    437       1.5322      1.00000
    438       1.5534      1.00000
    439       1.5634      1.00000
    440       1.5673      1.00000
    441       1.6332      1.00000
    442       1.6342      1.00000
    443       1.6460      1.00000
    444       1.6781      1.00000
    445       1.6811      1.00000
    446       1.6839      1.00000
    447       1.7645      1.00000
    448       1.7866      1.00000
    449       1.7913      1.00000
    450       1.8033      1.00000
    451       1.8161      1.00000
    452       1.8336      1.00000
    453       1.8383      1.00000
    454       1.8489      1.00000
    455       1.8707      1.00000
    456       1.8711      1.00000
    457       1.9886      1.00000
    458       2.0323      1.00000
    459       2.0785      1.00000
    460       3.2575      1.00000
    461       4.3147      0.00000
    462       4.3533      0.00000
    463       4.3762      0.00000
    464       4.3929      0.00000
    465       4.4151      0.00000
    466       4.4501      0.00000
    467       4.4579      0.00000
    468       4.4767      0.00000
    469       4.4817      0.00000
    470       4.4836      0.00000
    471       4.4907      0.00000
    472       4.5023      0.00000
    473       4.5271      0.00000
    474       4.5286      0.00000
    475       4.5473      0.00000
    476       4.5481      0.00000
    477       4.5526      0.00000
    478       4.5571      0.00000
    479       4.5685      0.00000
    480       4.5738      0.00000
    481       4.5757      0.00000
    482       4.5834      0.00000
    483       4.5930      0.00000
    484       4.5969      0.00000
    485       4.5981      0.00000
    486       4.6031      0.00000
    487       4.6041      0.00000
    488       4.6079      0.00000
    489       4.6166      0.00000
    490       4.6239      0.00000
    491       4.6274      0.00000
    492       4.6296      0.00000
    493       4.6350      0.00000
    494       4.6432      0.00000
    495       4.6478      0.00000
    496       4.6570      0.00000
    497       4.6631      0.00000
    498       4.6731      0.00000
    499       4.6840      0.00000
    500       4.6869      0.00000
    501       4.6904      0.00000
    502       4.7047      0.00000
    503       4.7102      0.00000
    504       4.7160      0.00000
    505       4.7232      0.00000
    506       4.7286      0.00000
    507       4.7295      0.00000
    508       4.7370      0.00000
    509       4.7586      0.00000
    510       4.7636      0.00000
    511       4.7720      0.00000
    512       4.7776      0.00000
    513       4.7862      0.00000
    514       4.7870      0.00000
    515       4.7965      0.00000
    516       4.8140      0.00000
    517       4.8150      0.00000
    518       4.8176      0.00000
    519       4.8247      0.00000
    520       4.8377      0.00000
    521       4.8489      0.00000
    522       4.8661      0.00000
    523       4.8684      0.00000
    524       4.8960      0.00000
    525       4.9003      0.00000
    526       4.9120      0.00000
    527       4.9126      0.00000
    528       4.9476      0.00000
    529       4.9617      0.00000
    530       4.9645      0.00000
    531       4.9743      0.00000
    532       4.9764      0.00000
    533       5.0022      0.00000
    534       5.0026      0.00000
    535       5.0076      0.00000
    536       5.0544      0.00000
    537       5.0553      0.00000
    538       5.0735      0.00000
    539       5.0972      0.00000
    540       5.1095      0.00000
    541       5.1154      0.00000
    542       5.1434      0.00000
    543       5.1532      0.00000
    544       5.1941      0.00000
    545       5.2021      0.00000
    546       5.2603      0.00000
    547       5.2663      0.00000
    548       5.2699      0.00000
    549       5.2931      0.00000
    550       5.3097      0.00000
    551       5.3362      0.00000
    552       5.3573      0.00000
    553       5.3631      0.00000
    554       5.3898      0.00000
    555       5.3968      0.00000
    556       5.4569      0.00000
    557       5.4811      0.00000
    558       5.5341      0.00000
    559       5.5566      0.00000
    560       5.5600      0.00000
    561       5.5677      0.00000
    562       5.5963      0.00000
    563       5.6514      0.00000
    564       5.6599      0.00000
    565       5.6759      0.00000
    566       5.6896      0.00000
    567       5.6954      0.00000
    568       5.6961      0.00000
    569       5.7242      0.00000
    570       5.7349      0.00000
    571       5.7372      0.00000
    572       5.7534      0.00000
    573       5.7740      0.00000
    574       5.7893      0.00000
    575       5.8047      0.00000
    576       7.8946      0.00000
    577       7.9024      0.00000
    578       7.9984      0.00000
    579       8.3223      0.00000
    580       8.7341      0.00000
    581       8.7635      0.00000
    582       9.1246      0.00000
    583       9.9415      0.00000
    584       9.9610      0.00000
    585      10.1463      0.00000
    586      10.2088      0.00000
    587      10.3853      0.00000
    588      10.3939      0.00000
    589      10.4330      0.00000
    590      10.4821      0.00000
    591      10.4898      0.00000
    592      10.4983      0.00000
    593      10.5236      0.00000
    594      10.5715      0.00000
    595      10.5770      0.00000
    596      10.5915      0.00000
    597      10.7492      0.00000
    598      10.8183      0.00000
    599      10.8610      0.00000
    600      10.9374      0.00000
    601      10.9565      0.00000
    602      10.9726      0.00000
    603      10.9752      0.00000
    604      11.0046      0.00000
    605      11.0300      0.00000
    606      11.1703      0.00000
    607      11.2247      0.00000
    608      11.2463      0.00000
    609      11.2690      0.00000
    610      11.3040      0.00000
    611      11.3415      0.00000
    612      11.3447      0.00000
    613      11.3857      0.00000
    614      11.4070      0.00000
    615      11.4274      0.00000
    616      11.4302      0.00000
    617      11.4773      0.00000
    618      11.5118      0.00000
    619      11.5262      0.00000
    620      11.5576      0.00000
    621      11.5809      0.00000
    622      11.5889      0.00000
    623      11.5894      0.00000
    624      11.6340      0.00000
    625      11.6526      0.00000
    626      11.6660      0.00000
    627      11.6768      0.00000
    628      11.6883      0.00000
    629      11.7092      0.00000
    630      11.7123      0.00000
    631      11.7406      0.00000
    632      11.7498      0.00000
    633      11.7736      0.00000
    634      11.7938      0.00000
    635      11.8186      0.00000
    636      11.8381      0.00000
    637      11.8391      0.00000
    638      11.9305      0.00000
    639      11.9674      0.00000
    640      11.9880      0.00000
    641      11.9885      0.00000
    642      11.9951      0.00000
    643      12.0103      0.00000
    644      12.0307      0.00000
    645      12.0434      0.00000
    646      12.1020      0.00000
    647      12.1218      0.00000
    648      12.1655      0.00000
    649      12.1886      0.00000
    650      12.2124      0.00000
    651      12.2340      0.00000
    652      12.2696      0.00000
    653      12.2808      0.00000
    654      12.3104      0.00000
    655      12.3317      0.00000
    656      12.3736      0.00000
    657      12.4005      0.00000
    658      12.4511      0.00000
    659      12.4530      0.00000
    660      12.4719      0.00000
    661      12.4862      0.00000
    662      12.4994      0.00000
    663      12.5052      0.00000
    664      12.5250      0.00000
    665      12.5294      0.00000
    666      12.5770      0.00000
    667      12.7089      0.00000
    668      12.7767      0.00000
    669      12.7786      0.00000
    670      12.7901      0.00000
    671      12.7915      0.00000
    672      12.8166      0.00000
    673      12.8208      0.00000
    674      12.8684      0.00000
    675      12.8991      0.00000
    676      12.9324      0.00000
    677      12.9890      0.00000
    678      13.1448      0.00000
    679      13.2066      0.00000
    680      13.2710      0.00000
    681      13.3010      0.00000
    682      13.3202      0.00000
    683      13.3561      0.00000
    684      13.3827      0.00000
    685      13.4002      0.00000
    686      13.4210      0.00000
    687      13.4770      0.00000
    688      13.5054      0.00000
    689      13.5227      0.00000
    690      13.5648      0.00000
    691      13.6308      0.00000
    692      13.6527      0.00000
    693      13.7452      0.00000
    694      13.7795      0.00000
    695      13.8051      0.00000
    696      13.8779      0.00000

 k-point     2 :       0.3333    0.0000    0.0000
  band No.  band energies     occupation 
      1     -50.5944      1.00000
      2     -50.5717      1.00000
      3     -50.5190      1.00000
      4     -50.5186      1.00000
      5     -50.5040      1.00000
      6     -50.5024      1.00000
      7     -50.5006      1.00000
      8     -50.4999      1.00000
      9     -50.4805      1.00000
     10     -50.4764      1.00000
     11     -50.4726      1.00000
     12     -50.4634      1.00000
     13     -50.4594      1.00000
     14     -50.4591      1.00000
     15     -50.4395      1.00000
     16     -50.4383      1.00000
     17     -50.4378      1.00000
     18     -50.4333      1.00000
     19     -50.4292      1.00000
     20     -50.4104      1.00000
     21     -50.4098      1.00000
     22     -50.4095      1.00000
     23     -50.4091      1.00000
     24     -50.4089      1.00000
     25     -50.4086      1.00000
     26     -50.4052      1.00000
     27     -50.3891      1.00000
     28     -50.3812      1.00000
     29     -50.3807      1.00000
     30     -50.3797      1.00000
     31     -50.3789      1.00000
     32     -50.3779      1.00000
     33     -50.3704      1.00000
     34     -50.3627      1.00000
     35     -50.3626      1.00000
     36     -50.3498      1.00000
     37     -50.3490      1.00000
     38     -50.3484      1.00000
     39     -50.3479      1.00000
     40     -50.3441      1.00000
     41     -50.3382      1.00000
     42     -50.3275      1.00000
     43     -50.3270      1.00000
     44     -50.3268      1.00000
     45     -50.3261      1.00000
     46     -50.3257      1.00000
     47     -50.3256      1.00000
     48     -50.3040      1.00000
     49     -50.3019      1.00000
     50     -50.2947      1.00000
     51     -50.2868      1.00000
     52     -50.2865      1.00000
     53     -50.2824      1.00000
     54     -50.2813      1.00000
     55     -50.2716      1.00000
     56     -50.2712      1.00000
     57     -50.2687      1.00000
     58     -50.2653      1.00000
     59     -50.2607      1.00000
     60     -50.2599      1.00000
     61     -50.2538      1.00000
     62     -50.2529      1.00000
     63     -50.2208      1.00000
     64     -50.2197      1.00000
     65     -50.2172      1.00000
     66     -50.2062      1.00000
     67     -50.2055      1.00000
     68     -50.2005      1.00000
     69     -50.1997      1.00000
     70     -46.8805      1.00000
     71     -46.4267      1.00000
     72     -46.3272      1.00000
     73     -18.9339      1.00000
     74     -18.7946      1.00000
     75     -18.7349      1.00000
     76     -18.4657      1.00000
     77     -18.3423      1.00000
     78     -18.2761      1.00000
     79     -18.2610      1.00000
     80     -18.2095      1.00000
     81     -18.1863      1.00000
     82     -18.1696      1.00000
     83     -18.1687      1.00000
     84     -18.1327      1.00000
     85     -18.1163      1.00000
     86     -18.1100      1.00000
     87     -18.1080      1.00000
     88     -18.0551      1.00000
     89     -18.0495      1.00000
     90     -18.0371      1.00000
     91     -18.0090      1.00000
     92     -18.0057      1.00000
     93     -17.9865      1.00000
     94     -17.9812      1.00000
     95     -17.9717      1.00000
     96     -17.9371      1.00000
     97     -17.9350      1.00000
     98     -17.9143      1.00000
     99     -17.8806      1.00000
    100     -16.1057      1.00000
    101     -15.9678      1.00000
    102     -15.9658      1.00000
    103     -15.9323      1.00000
    104     -15.9206      1.00000
    105     -15.9146      1.00000
    106     -15.8925      1.00000
    107     -15.8636      1.00000
    108     -15.8586      1.00000
    109     -15.8342      1.00000
    110     -15.8305      1.00000
    111     -15.8271      1.00000
    112     -15.8172      1.00000
    113     -15.8057      1.00000
    114     -15.7968      1.00000
    115     -15.7942      1.00000
    116     -15.7871      1.00000
    117     -15.7827      1.00000
    118     -15.7638      1.00000
    119     -15.7636      1.00000
    120     -15.7382      1.00000
    121     -15.7153      1.00000
    122     -15.7071      1.00000
    123     -15.6916      1.00000
    124     -15.6683      1.00000
    125     -15.6638      1.00000
    126     -15.6367      1.00000
    127     -15.6010      1.00000
    128     -15.5917      1.00000
    129     -15.5889      1.00000
    130     -15.5756      1.00000
    131     -15.5735      1.00000
    132     -15.5547      1.00000
    133     -15.5537      1.00000
    134     -15.5311      1.00000
    135     -15.5279      1.00000
    136     -15.5156      1.00000
    137     -15.5151      1.00000
    138     -15.5111      1.00000
    139     -15.5036      1.00000
    140     -15.5018      1.00000
    141     -15.4969      1.00000
    142     -15.4908      1.00000
    143     -15.4812      1.00000
    144     -15.4799      1.00000
    145     -15.4744      1.00000
    146     -15.4573      1.00000
    147     -15.4465      1.00000
    148     -15.4338      1.00000
    149     -15.4198      1.00000
    150     -15.4173      1.00000
    151     -15.4118      1.00000
    152     -15.3920      1.00000
    153     -15.3892      1.00000
    154     -15.3840      1.00000
    155     -15.3794      1.00000
    156     -15.3750      1.00000
    157     -15.3695      1.00000
    158     -15.3467      1.00000
    159     -15.3451      1.00000
    160     -15.3407      1.00000
    161     -15.3363      1.00000
    162     -15.3297      1.00000
    163     -15.3266      1.00000
    164     -15.3249      1.00000
    165     -15.3180      1.00000
    166     -15.3081      1.00000
    167     -15.3066      1.00000
    168     -15.2693      1.00000
    169     -15.2651      1.00000
    170     -15.2136      1.00000
    171     -15.2012      1.00000
    172      -6.0803      1.00000
    173      -5.9028      1.00000
    174      -5.8617      1.00000
    175      -5.7871      1.00000
    176      -5.7175      1.00000
    177      -5.6696      1.00000
    178      -5.6147      1.00000
    179      -5.5928      1.00000
    180      -5.5795      1.00000
    181      -5.5535      1.00000
    182      -5.5487      1.00000
    183      -5.5260      1.00000
    184      -5.4971      1.00000
    185      -5.4721      1.00000
    186      -5.4485      1.00000
    187      -5.4217      1.00000
    188      -5.4176      1.00000
    189      -5.4127      1.00000
    190      -5.3861      1.00000
    191      -5.3648      1.00000
    192      -5.3291      1.00000
    193      -5.2630      1.00000
    194      -5.2533      1.00000
    195      -5.1769      1.00000
    196      -4.2835      1.00000
    197      -4.0961      1.00000
    198      -4.0432      1.00000
    199      -4.0322      1.00000
    200      -3.9093      1.00000
    201      -3.8807      1.00000
    202      -3.7222      1.00000
    203      -3.6737      1.00000
    204      -3.6505      1.00000
    205      -3.6411      1.00000
    206      -3.6058      1.00000
    207      -3.5867      1.00000
    208      -3.5722      1.00000
    209      -3.5468      1.00000
    210      -3.5408      1.00000
    211      -3.5255      1.00000
    212      -3.5211      1.00000
    213      -3.4875      1.00000
    214      -3.4662      1.00000
    215      -3.4494      1.00000
    216      -3.4407      1.00000
    217      -3.4126      1.00000
    218      -3.4050      1.00000
    219      -3.3822      1.00000
    220      -3.3804      1.00000
    221      -3.3739      1.00000
    222      -3.3560      1.00000
    223      -3.3451      1.00000
    224      -3.2838      1.00000
    225      -3.2711      1.00000
    226      -3.2577      1.00000
    227      -3.2413      1.00000
    228      -3.2391      1.00000
    229      -3.2304      1.00000
    230      -3.2198      1.00000
    231      -3.2177      1.00000
    232      -3.2124      1.00000
    233      -3.1985      1.00000
    234      -3.1831      1.00000
    235      -3.1447      1.00000
    236      -3.1347      1.00000
    237      -3.0818      1.00000
    238      -3.0771      1.00000
    239      -3.0513      1.00000
    240      -3.0388      1.00000
    241      -3.0321      1.00000
    242      -3.0263      1.00000
    243      -3.0064      1.00000
    244      -2.9759      1.00000
    245      -2.9578      1.00000
    246      -2.9559      1.00000
    247      -2.9284      1.00000
    248      -2.9187      1.00000
    249      -2.9113      1.00000
    250      -2.8960      1.00000
    251      -2.8699      1.00000
    252      -2.8623      1.00000
    253      -2.8196      1.00000
    254      -2.7938      1.00000
    255      -2.7734      1.00000
    256      -2.7216      1.00000
    257      -2.7191      1.00000
    258      -2.6871      1.00000
    259      -2.6747      1.00000
    260      -2.6663      1.00000
    261      -2.6622      1.00000
    262      -2.6523      1.00000
    263      -2.6238      1.00000
    264      -2.5938      1.00000
    265      -2.5836      1.00000
    266      -2.5583      1.00000
    267      -2.4243      1.00000
    268      -2.0151      1.00000
    269      -1.9435      1.00000
    270      -1.9191      1.00000
    271      -1.8942      1.00000
    272      -1.8889      1.00000
    273      -1.8033      1.00000
    274      -1.7711      1.00000
    275      -1.7527      1.00000
    276      -1.7341      1.00000
    277      -1.7320      1.00000
    278      -1.7123      1.00000
    279      -1.6983      1.00000
    280      -1.6934      1.00000
    281      -1.6902      1.00000
    282      -1.6195      1.00000
    283      -1.6192      1.00000
    284      -1.5674      1.00000
    285      -1.4791      1.00000
    286      -1.4309      1.00000
    287      -1.4180      1.00000
    288      -1.2617      1.00000
    289      -1.2447      1.00000
    290      -1.1879      1.00000
    291      -1.1791      1.00000
    292      -1.1607      1.00000
    293      -1.1506      1.00000
    294      -1.0743      1.00000
    295      -1.0618      1.00000
    296      -1.0415      1.00000
    297      -1.0019      1.00000
    298      -0.9825      1.00000
    299      -0.9734      1.00000
    300      -0.9390      1.00000
    301      -0.9231      1.00000
    302      -0.9053      1.00000
    303      -0.8866      1.00000
    304      -0.8821      1.00000
    305      -0.8649      1.00000
    306      -0.8585      1.00000
    307      -0.8343      1.00000
    308      -0.8300      1.00000
    309      -0.8130      1.00000
    310      -0.7866      1.00000
    311      -0.7629      1.00000
    312      -0.7431      1.00000
    313      -0.7301      1.00000
    314      -0.7196      1.00000
    315      -0.7091      1.00000
    316      -0.6550      1.00000
    317      -0.6368      1.00000
    318      -0.6321      1.00000
    319      -0.6159      1.00000
    320      -0.6054      1.00000
    321      -0.5971      1.00000
    322      -0.5699      1.00000
    323      -0.5638      1.00000
    324      -0.5450      1.00000
    325      -0.5367      1.00000
    326      -0.5143      1.00000
    327      -0.5006      1.00000
    328      -0.4627      1.00000
    329      -0.4526      1.00000
    330      -0.4444      1.00000
    331      -0.4426      1.00000
    332      -0.4358      1.00000
    333      -0.3995      1.00000
    334      -0.3754      1.00000
    335      -0.3319      1.00000
    336      -0.2985      1.00000
    337      -0.2357      1.00000
    338      -0.2313      1.00000
    339      -0.1835      1.00000
    340      -0.1665      1.00000
    341      -0.1537      1.00000
    342      -0.1508      1.00000
    343      -0.1414      1.00000
    344      -0.1119      1.00000
    345      -0.1106      1.00000
    346      -0.1055      1.00000
    347      -0.0941      1.00000
    348      -0.0864      1.00000
    349      -0.0657      1.00000
    350      -0.0472      1.00000
    351      -0.0443      1.00000
    352      -0.0122      1.00000
    353       0.0083      1.00000
    354       0.0358      1.00000
    355       0.0460      1.00000
    356       0.0499      1.00000
    357       0.0820      1.00000
    358       0.0901      1.00000
    359       0.1022      1.00000
    360       0.1108      1.00000
    361       0.1276      1.00000
    362       0.1310      1.00000
    363       0.1742      1.00000
    364       0.2152      1.00000
    365       0.2543      1.00000
    366       0.2813      1.00000
    367       0.3012      1.00000
    368       0.3263      1.00000
    369       0.3364      1.00000
    370       0.3390      1.00000
    371       0.3580      1.00000
    372       0.3641      1.00000
    373       0.3857      1.00000
    374       0.3866      1.00000
    375       0.4070      1.00000
    376       0.4084      1.00000
    377       0.4356      1.00000
    378       0.4418      1.00000
    379       0.4485      1.00000
    380       0.4502      1.00000
    381       0.4913      1.00000
    382       0.5254      1.00000
    383       0.5417      1.00000
    384       0.5576      1.00000
    385       0.5629      1.00000
    386       0.5968      1.00000
    387       0.6154      1.00000
    388       0.6949      1.00000
    389       0.7173      1.00000
    390       0.7746      1.00000
    391       0.7754      1.00000
    392       0.8005      1.00000
    393       0.8187      1.00000
    394       0.8194      1.00000
    395       0.8357      1.00000
    396       0.8426      1.00000
    397       0.8590      1.00000
    398       0.8835      1.00000
    399       0.8904      1.00000
    400       0.9100      1.00000
    401       0.9375      1.00000
    402       0.9796      1.00000
    403       0.9911      1.00000
    404       1.0061      1.00000
    405       1.0190      1.00000
    406       1.0261      1.00000
    407       1.0278      1.00000
    408       1.0361      1.00000
    409       1.0660      1.00000
    410       1.0986      1.00000
    411       1.1185      1.00000
    412       1.1217      1.00000
    413       1.1589      1.00000
    414       1.1760      1.00000
    415       1.2031      1.00000
    416       1.2075      1.00000
    417       1.2181      1.00000
    418       1.2333      1.00000
    419       1.2412      1.00000
    420       1.2537      1.00000
    421       1.2552      1.00000
    422       1.2651      1.00000
    423       1.3097      1.00000
    424       1.3294      1.00000
    425       1.3404      1.00000
    426       1.3574      1.00000
    427       1.3637      1.00000
    428       1.3875      1.00000
    429       1.4188      1.00000
    430       1.4310      1.00000
    431       1.4368      1.00000
    432       1.4382      1.00000
    433       1.4593      1.00000
    434       1.4609      1.00000
    435       1.4843      1.00000
    436       1.5242      1.00000
    437       1.5245      1.00000
    438       1.5322      1.00000
    439       1.5588      1.00000
    440       1.5948      1.00000
    441       1.5966      1.00000
    442       1.6238      1.00000
    443       1.6566      1.00000
    444       1.6607      1.00000
    445       1.6677      1.00000
    446       1.6826      1.00000
    447       1.6835      1.00000
    448       1.6882      1.00000
    449       1.7219      1.00000
    450       1.7996      1.00000
    451       1.8134      1.00000
    452       1.8151      1.00000
    453       1.8255      1.00000
    454       1.8536      1.00000
    455       1.8697      1.00000
    456       1.9210      1.00000
    457       2.0147      1.00000
    458       2.0324      1.00000
    459       2.0880      1.00000
    460       3.2585      1.00000
    461       4.3222      0.00000
    462       4.3624      0.00000
    463       4.3741      0.00000
    464       4.3910      0.00000
    465       4.4123      0.00000
    466       4.4570      0.00000
    467       4.4661      0.00000
    468       4.4753      0.00000
    469       4.4853      0.00000
    470       4.4905      0.00000
    471       4.4953      0.00000
    472       4.5060      0.00000
    473       4.5066      0.00000
    474       4.5223      0.00000
    475       4.5239      0.00000
    476       4.5279      0.00000
    477       4.5647      0.00000
    478       4.5672      0.00000
    479       4.5751      0.00000
    480       4.5770      0.00000
    481       4.5790      0.00000
    482       4.5880      0.00000
    483       4.5942      0.00000
    484       4.5967      0.00000
    485       4.6017      0.00000
    486       4.6109      0.00000
    487       4.6156      0.00000
    488       4.6190      0.00000
    489       4.6271      0.00000
    490       4.6321      0.00000
    491       4.6410      0.00000
    492       4.6429      0.00000
    493       4.6507      0.00000
    494       4.6555      0.00000
    495       4.6582      0.00000
    496       4.6639      0.00000
    497       4.6749      0.00000
    498       4.6818      0.00000
    499       4.6839      0.00000
    500       4.6953      0.00000
    501       4.6959      0.00000
    502       4.7088      0.00000
    503       4.7111      0.00000
    504       4.7208      0.00000
    505       4.7284      0.00000
    506       4.7310      0.00000
    507       4.7380      0.00000
    508       4.7403      0.00000
    509       4.7577      0.00000
    510       4.7616      0.00000
    511       4.7671      0.00000
    512       4.7723      0.00000
    513       4.7807      0.00000
    514       4.7837      0.00000
    515       4.7919      0.00000
    516       4.8082      0.00000
    517       4.8085      0.00000
    518       4.8160      0.00000
    519       4.8164      0.00000
    520       4.8205      0.00000
    521       4.8445      0.00000
    522       4.8508      0.00000
    523       4.8787      0.00000
    524       4.8806      0.00000
    525       4.8921      0.00000
    526       4.8995      0.00000
    527       4.9081      0.00000
    528       4.9184      0.00000
    529       4.9188      0.00000
    530       4.9374      0.00000
    531       4.9489      0.00000
    532       4.9529      0.00000
    533       4.9771      0.00000
    534       4.9971      0.00000
    535       4.9987      0.00000
    536       5.0336      0.00000
    537       5.0461      0.00000
    538       5.0754      0.00000
    539       5.0896      0.00000
    540       5.0924      0.00000
    541       5.0996      0.00000
    542       5.1173      0.00000
    543       5.1691      0.00000
    544       5.1906      0.00000
    545       5.2199      0.00000
    546       5.2475      0.00000
    547       5.2554      0.00000
    548       5.2779      0.00000
    549       5.2901      0.00000
    550       5.3037      0.00000
    551       5.3230      0.00000
    552       5.3407      0.00000
    553       5.3528      0.00000
    554       5.3915      0.00000
    555       5.4672      0.00000
    556       5.4693      0.00000
    557       5.5015      0.00000
    558       5.5634      0.00000
    559       5.5656      0.00000
    560       5.5860      0.00000
    561       5.5901      0.00000
    562       5.6100      0.00000
    563       5.6306      0.00000
    564       5.6394      0.00000
    565       5.6812      0.00000
    566       5.6823      0.00000
    567       5.6974      0.00000
    568       5.7018      0.00000
    569       5.7097      0.00000
    570       5.7387      0.00000
    571       5.7449      0.00000
    572       5.7559      0.00000
    573       5.7705      0.00000
    574       5.8020      0.00000
    575       5.8146      0.00000
    576       7.8930      0.00000
    577       7.9996      0.00000
    578       8.1957      0.00000
    579       8.3795      0.00000
    580       8.9940      0.00000
    581       9.0269      0.00000
    582       9.1327      0.00000
    583       9.1879      0.00000
    584       9.7134      0.00000
    585       9.7397      0.00000
    586      10.0171      0.00000
    587      10.0375      0.00000
    588      10.4747      0.00000
    589      10.4952      0.00000
    590      10.5052      0.00000
    591      10.5350      0.00000
    592      10.5411      0.00000
    593      10.5533      0.00000
    594      10.7437      0.00000
    595      10.7989      0.00000
    596      10.8046      0.00000
    597      10.8739      0.00000
    598      10.9406      0.00000
    599      10.9430      0.00000
    600      10.9615      0.00000
    601      10.9755      0.00000
    602      10.9901      0.00000
    603      11.0878      0.00000
    604      11.1162      0.00000
    605      11.1171      0.00000
    606      11.1838      0.00000
    607      11.2039      0.00000
    608      11.2618      0.00000
    609      11.2814      0.00000
    610      11.2831      0.00000
    611      11.3107      0.00000
    612      11.3113      0.00000
    613      11.3809      0.00000
    614      11.4098      0.00000
    615      11.4466      0.00000
    616      11.4799      0.00000
    617      11.5157      0.00000
    618      11.5353      0.00000
    619      11.5402      0.00000
    620      11.5625      0.00000
    621      11.5691      0.00000
    622      11.5842      0.00000
    623      11.5899      0.00000
    624      11.6149      0.00000
    625      11.6183      0.00000
    626      11.6325      0.00000
    627      11.6462      0.00000
    628      11.6463      0.00000
    629      11.6646      0.00000
    630      11.6773      0.00000
    631      11.6914      0.00000
    632      11.7118      0.00000
    633      11.7663      0.00000
    634      11.7877      0.00000
    635      11.8210      0.00000
    636      11.8323      0.00000
    637      11.9140      0.00000
    638      11.9335      0.00000
    639      11.9468      0.00000
    640      11.9591      0.00000
    641      11.9669      0.00000
    642      12.0034      0.00000
    643      12.0175      0.00000
    644      12.0336      0.00000
    645      12.0769      0.00000
    646      12.1516      0.00000
    647      12.1837      0.00000
    648      12.1949      0.00000
    649      12.2234      0.00000
    650      12.2444      0.00000
    651      12.2567      0.00000
    652      12.2592      0.00000
    653      12.2771      0.00000
    654      12.2955      0.00000
    655      12.3060      0.00000
    656      12.3200      0.00000
    657      12.3704      0.00000
    658      12.3887      0.00000
    659      12.4001      0.00000
    660      12.4135      0.00000
    661      12.4323      0.00000
    662      12.4810      0.00000
    663      12.5258      0.00000
    664      12.5348      0.00000
    665      12.5601      0.00000
    666      12.5666      0.00000
    667      12.5777      0.00000
    668      12.6140      0.00000
    669      12.6257      0.00000
    670      12.7975      0.00000
    671      12.8267      0.00000
    672      12.8939      0.00000
    673      12.9106      0.00000
    674      12.9625      0.00000
    675      13.1581      0.00000
    676      13.1871      0.00000
    677      13.1925      0.00000
    678      13.2172      0.00000
    679      13.2327      0.00000
    680      13.2869      0.00000
    681      13.3013      0.00000
    682      13.3455      0.00000
    683      13.3869      0.00000
    684      13.3878      0.00000
    685      13.4319      0.00000
    686      13.4575      0.00000
    687      13.4585      0.00000
    688      13.4823      0.00000
    689      13.5091      0.00000
    690      13.5397      0.00000
    691      13.5770      0.00000
    692      13.5839      0.00000
    693      13.5945      0.00000
    694      13.7057      0.00000
    695      13.7446      0.00000
    696      13.8242      0.00000

 k-point     3 :       0.0000    0.0000    0.3333
  band No.  band energies     occupation 
      1     -50.5944      1.00000
      2     -50.5718      1.00000
      3     -50.5190      1.00000
      4     -50.5186      1.00000
      5     -50.5040      1.00000
      6     -50.5024      1.00000
      7     -50.5006      1.00000
      8     -50.4999      1.00000
      9     -50.4805      1.00000
     10     -50.4764      1.00000
     11     -50.4726      1.00000
     12     -50.4634      1.00000
     13     -50.4594      1.00000
     14     -50.4591      1.00000
     15     -50.4395      1.00000
     16     -50.4383      1.00000
     17     -50.4378      1.00000
     18     -50.4333      1.00000
     19     -50.4292      1.00000
     20     -50.4104      1.00000
     21     -50.4098      1.00000
     22     -50.4095      1.00000
     23     -50.4091      1.00000
     24     -50.4089      1.00000
     25     -50.4086      1.00000
     26     -50.4052      1.00000
     27     -50.3891      1.00000
     28     -50.3812      1.00000
     29     -50.3807      1.00000
     30     -50.3797      1.00000
     31     -50.3789      1.00000
     32     -50.3779      1.00000
     33     -50.3704      1.00000
     34     -50.3627      1.00000
     35     -50.3626      1.00000
     36     -50.3498      1.00000
     37     -50.3490      1.00000
     38     -50.3484      1.00000
     39     -50.3479      1.00000
     40     -50.3441      1.00000
     41     -50.3382      1.00000
     42     -50.3275      1.00000
     43     -50.3270      1.00000
     44     -50.3268      1.00000
     45     -50.3261      1.00000
     46     -50.3257      1.00000
     47     -50.3256      1.00000
     48     -50.3040      1.00000
     49     -50.3019      1.00000
     50     -50.2947      1.00000
     51     -50.2868      1.00000
     52     -50.2865      1.00000
     53     -50.2824      1.00000
     54     -50.2813      1.00000
     55     -50.2716      1.00000
     56     -50.2712      1.00000
     57     -50.2687      1.00000
     58     -50.2653      1.00000
     59     -50.2607      1.00000
     60     -50.2599      1.00000
     61     -50.2538      1.00000
     62     -50.2529      1.00000
     63     -50.2208      1.00000
     64     -50.2197      1.00000
     65     -50.2172      1.00000
     66     -50.2063      1.00000
     67     -50.2055      1.00000
     68     -50.2005      1.00000
     69     -50.1997      1.00000
     70     -46.8805      1.00000
     71     -46.4267      1.00000
     72     -46.3272      1.00000
     73     -18.9353      1.00000
     74     -18.7950      1.00000
     75     -18.7348      1.00000
     76     -18.4653      1.00000
     77     -18.3438      1.00000
     78     -18.2770      1.00000
     79     -18.2602      1.00000
     80     -18.2345      1.00000
     81     -18.1907      1.00000
     82     -18.1620      1.00000
     83     -18.1150      1.00000
     84     -18.1078      1.00000
     85     -18.1068      1.00000
     86     -18.0888      1.00000
     87     -18.0756      1.00000
     88     -18.0623      1.00000
     89     -18.0508      1.00000
     90     -18.0474      1.00000
     91     -18.0323      1.00000
     92     -18.0145      1.00000
     93     -18.0064      1.00000
     94     -18.0012      1.00000
     95     -17.9982      1.00000
     96     -17.9705      1.00000
     97     -17.9219      1.00000
     98     -17.9147      1.00000
     99     -17.8705      1.00000
    100     -16.1047      1.00000
    101     -15.9588      1.00000
    102     -15.9523      1.00000
    103     -15.9269      1.00000
    104     -15.9194      1.00000
    105     -15.9095      1.00000
    106     -15.9000      1.00000
    107     -15.8949      1.00000
    108     -15.8775      1.00000
    109     -15.8593      1.00000
    110     -15.8524      1.00000
    111     -15.8278      1.00000
    112     -15.8142      1.00000
    113     -15.7725      1.00000
    114     -15.7684      1.00000
    115     -15.7662      1.00000
    116     -15.7496      1.00000
    117     -15.7479      1.00000
    118     -15.7313      1.00000
    119     -15.7300      1.00000
    120     -15.7296      1.00000
    121     -15.7065      1.00000
    122     -15.6990      1.00000
    123     -15.6856      1.00000
    124     -15.6672      1.00000
    125     -15.6659      1.00000
    126     -15.6608      1.00000
    127     -15.6427      1.00000
    128     -15.6355      1.00000
    129     -15.6263      1.00000
    130     -15.6042      1.00000
    131     -15.6035      1.00000
    132     -15.5804      1.00000
    133     -15.5784      1.00000
    134     -15.5493      1.00000
    135     -15.5382      1.00000
    136     -15.5135      1.00000
    137     -15.5083      1.00000
    138     -15.4923      1.00000
    139     -15.4896      1.00000
    140     -15.4821      1.00000
    141     -15.4754      1.00000
    142     -15.4707      1.00000
    143     -15.4665      1.00000
    144     -15.4572      1.00000
    145     -15.4552      1.00000
    146     -15.4446      1.00000
    147     -15.4314      1.00000
    148     -15.4278      1.00000
    149     -15.4238      1.00000
    150     -15.4136      1.00000
    151     -15.4080      1.00000
    152     -15.4069      1.00000
    153     -15.3964      1.00000
    154     -15.3962      1.00000
    155     -15.3929      1.00000
    156     -15.3835      1.00000
    157     -15.3823      1.00000
    158     -15.3574      1.00000
    159     -15.3536      1.00000
    160     -15.3466      1.00000
    161     -15.3416      1.00000
    162     -15.3341      1.00000
    163     -15.3297      1.00000
    164     -15.3197      1.00000
    165     -15.3187      1.00000
    166     -15.3055      1.00000
    167     -15.3032      1.00000
    168     -15.2702      1.00000
    169     -15.2637      1.00000
    170     -15.2137      1.00000
    171     -15.2011      1.00000
    172      -6.1330      1.00000
    173      -5.9790      1.00000
    174      -5.9179      1.00000
    175      -5.9156      1.00000
    176      -5.7819      1.00000
    177      -5.7517      1.00000
    178      -5.6175      1.00000
    179      -5.5730      1.00000
    180      -5.5520      1.00000
    181      -5.5081      1.00000
    182      -5.4896      1.00000
    183      -5.4878      1.00000
    184      -5.4675      1.00000
    185      -5.4337      1.00000
    186      -5.4153      1.00000
    187      -5.3842      1.00000
    188      -5.3749      1.00000
    189      -5.3624      1.00000
    190      -5.3259      1.00000
    191      -5.2971      1.00000
    192      -5.2904      1.00000
    193      -5.2071      1.00000
    194      -5.1969      1.00000
    195      -5.1875      1.00000
    196      -4.2130      1.00000
    197      -4.0361      1.00000
    198      -3.9874      1.00000
    199      -3.9653      1.00000
    200      -3.9110      1.00000
    201      -3.8205      1.00000
    202      -3.7906      1.00000
    203      -3.7798      1.00000
    204      -3.7423      1.00000
    205      -3.6666      1.00000
    206      -3.6467      1.00000
    207      -3.6236      1.00000
    208      -3.6059      1.00000
    209      -3.5900      1.00000
    210      -3.5581      1.00000
    211      -3.5568      1.00000
    212      -3.5318      1.00000
    213      -3.5170      1.00000
    214      -3.5118      1.00000
    215      -3.4991      1.00000
    216      -3.4913      1.00000
    217      -3.4741      1.00000
    218      -3.4402      1.00000
    219      -3.3780      1.00000
    220      -3.3631      1.00000
    221      -3.3454      1.00000
    222      -3.3342      1.00000
    223      -3.3107      1.00000
    224      -3.3014      1.00000
    225      -3.2839      1.00000
    226      -3.2823      1.00000
    227      -3.2739      1.00000
    228      -3.2565      1.00000
    229      -3.2509      1.00000
    230      -3.2430      1.00000
    231      -3.2258      1.00000
    232      -3.1738      1.00000
    233      -3.1606      1.00000
    234      -3.1455      1.00000
    235      -3.1167      1.00000
    236      -3.1074      1.00000
    237      -3.0634      1.00000
    238      -3.0503      1.00000
    239      -3.0425      1.00000
    240      -3.0316      1.00000
    241      -2.9778      1.00000
    242      -2.9565      1.00000
    243      -2.9498      1.00000
    244      -2.9425      1.00000
    245      -2.9331      1.00000
    246      -2.9321      1.00000
    247      -2.9148      1.00000
    248      -2.9113      1.00000
    249      -2.8964      1.00000
    250      -2.8770      1.00000
    251      -2.8592      1.00000
    252      -2.8479      1.00000
    253      -2.8406      1.00000
    254      -2.8254      1.00000
    255      -2.8179      1.00000
    256      -2.7854      1.00000
    257      -2.7744      1.00000
    258      -2.6931      1.00000
    259      -2.6861      1.00000
    260      -2.6759      1.00000
    261      -2.6639      1.00000
    262      -2.6601      1.00000
    263      -2.6445      1.00000
    264      -2.6374      1.00000
    265      -2.5863      1.00000
    266      -2.5765      1.00000
    267      -2.4490      1.00000
    268      -2.0452      1.00000
    269      -1.9793      1.00000
    270      -1.9492      1.00000
    271      -1.9247      1.00000
    272      -1.8434      1.00000
    273      -1.8052      1.00000
    274      -1.7915      1.00000
    275      -1.7873      1.00000
    276      -1.7417      1.00000
    277      -1.7225      1.00000
    278      -1.7087      1.00000
    279      -1.6963      1.00000
    280      -1.6839      1.00000
    281      -1.6021      1.00000
    282      -1.5751      1.00000
    283      -1.5492      1.00000
    284      -1.5259      1.00000
    285      -1.4661      1.00000
    286      -1.4429      1.00000
    287      -1.3736      1.00000
    288      -1.3178      1.00000
    289      -1.2906      1.00000
    290      -1.2853      1.00000
    291      -1.2178      1.00000
    292      -1.1826      1.00000
    293      -1.1690      1.00000
    294      -1.1618      1.00000
    295      -1.1515      1.00000
    296      -1.1423      1.00000
    297      -1.1354      1.00000
    298      -1.1026      1.00000
    299      -1.0563      1.00000
    300      -0.9981      1.00000
    301      -0.9847      1.00000
    302      -0.9573      1.00000
    303      -0.8862      1.00000
    304      -0.8784      1.00000
    305      -0.8620      1.00000
    306      -0.8428      1.00000
    307      -0.8302      1.00000
    308      -0.8267      1.00000
    309      -0.8186      1.00000
    310      -0.8077      1.00000
    311      -0.7751      1.00000
    312      -0.7725      1.00000
    313      -0.7530      1.00000
    314      -0.7309      1.00000
    315      -0.7108      1.00000
    316      -0.6922      1.00000
    317      -0.6906      1.00000
    318      -0.6781      1.00000
    319      -0.6667      1.00000
    320      -0.6262      1.00000
    321      -0.6250      1.00000
    322      -0.6003      1.00000
    323      -0.5844      1.00000
    324      -0.5800      1.00000
    325      -0.5670      1.00000
    326      -0.5241      1.00000
    327      -0.4585      1.00000
    328      -0.4396      1.00000
    329      -0.4372      1.00000
    330      -0.4361      1.00000
    331      -0.4209      1.00000
    332      -0.3915      1.00000
    333      -0.3864      1.00000
    334      -0.3454      1.00000
    335      -0.3213      1.00000
    336      -0.2338      1.00000
    337      -0.2301      1.00000
    338      -0.1829      1.00000
    339      -0.1301      1.00000
    340      -0.1298      1.00000
    341      -0.1221      1.00000
    342      -0.1143      1.00000
    343      -0.0885      1.00000
    344      -0.0841      1.00000
    345      -0.0668      1.00000
    346      -0.0501      1.00000
    347      -0.0233      1.00000
    348      -0.0098      1.00000
    349       0.0160      1.00000
    350       0.0516      1.00000
    351       0.0539      1.00000
    352       0.1032      1.00000
    353       0.1101      1.00000
    354       0.1230      1.00000
    355       0.1344      1.00000
    356       0.1566      1.00000
    357       0.1640      1.00000
    358       0.2139      1.00000
    359       0.2266      1.00000
    360       0.2505      1.00000
    361       0.2607      1.00000
    362       0.2619      1.00000
    363       0.2810      1.00000
    364       0.3032      1.00000
    365       0.3106      1.00000
    366       0.3266      1.00000
    367       0.3338      1.00000
    368       0.3512      1.00000
    369       0.3518      1.00000
    370       0.3624      1.00000
    371       0.3843      1.00000
    372       0.3846      1.00000
    373       0.3986      1.00000
    374       0.4002      1.00000
    375       0.4247      1.00000
    376       0.4449      1.00000
    377       0.4714      1.00000
    378       0.4782      1.00000
    379       0.4934      1.00000
    380       0.4994      1.00000
    381       0.5300      1.00000
    382       0.5408      1.00000
    383       0.5568      1.00000
    384       0.5658      1.00000
    385       0.5719      1.00000
    386       0.5837      1.00000
    387       0.6077      1.00000
    388       0.6148      1.00000
    389       0.6522      1.00000
    390       0.6831      1.00000
    391       0.6908      1.00000
    392       0.7141      1.00000
    393       0.7565      1.00000
    394       0.7742      1.00000
    395       0.8036      1.00000
    396       0.8122      1.00000
    397       0.8235      1.00000
    398       0.8419      1.00000
    399       0.8577      1.00000
    400       0.8671      1.00000
    401       0.8890      1.00000
    402       0.8978      1.00000
    403       0.9077      1.00000
    404       0.9224      1.00000
    405       0.9248      1.00000
    406       0.9342      1.00000
    407       0.9515      1.00000
    408       0.9880      1.00000
    409       1.0381      1.00000
    410       1.0696      1.00000
    411       1.1094      1.00000
    412       1.1311      1.00000
    413       1.1600      1.00000
    414       1.1794      1.00000
    415       1.1816      1.00000
    416       1.1989      1.00000
    417       1.2182      1.00000
    418       1.2282      1.00000
    419       1.2477      1.00000
    420       1.2558      1.00000
    421       1.2862      1.00000
    422       1.2878      1.00000
    423       1.3014      1.00000
    424       1.3342      1.00000
    425       1.3560      1.00000
    426       1.3638      1.00000
    427       1.3648      1.00000
    428       1.3793      1.00000
    429       1.3812      1.00000
    430       1.4053      1.00000
    431       1.4110      1.00000
    432       1.4389      1.00000
    433       1.4454      1.00000
    434       1.4608      1.00000
    435       1.4708      1.00000
    436       1.4874      1.00000
    437       1.4926      1.00000
    438       1.4973      1.00000
    439       1.5117      1.00000
    440       1.5314      1.00000
    441       1.5369      1.00000
    442       1.5469      1.00000
    443       1.5795      1.00000
    444       1.6705      1.00000
    445       1.6884      1.00000
    446       1.7211      1.00000
    447       1.7707      1.00000
    448       1.7781      1.00000
    449       1.7876      1.00000
    450       1.7929      1.00000
    451       1.8123      1.00000
    452       1.8412      1.00000
    453       1.8416      1.00000
    454       1.8725      1.00000
    455       1.8747      1.00000
    456       1.8913      1.00000
    457       1.9729      1.00000
    458       1.9923      1.00000
    459       2.0333      1.00000
    460       3.2505      1.00000
    461       4.3070      0.00000
    462       4.3539      0.00000
    463       4.3804      0.00000
    464       4.3910      0.00000
    465       4.3960      0.00000
    466       4.4022      0.00000
    467       4.4067      0.00000
    468       4.4431      0.00000
    469       4.4464      0.00000
    470       4.4571      0.00000
    471       4.4692      0.00000
    472       4.4766      0.00000
    473       4.4792      0.00000
    474       4.5035      0.00000
    475       4.5298      0.00000
    476       4.5383      0.00000
    477       4.5399      0.00000
    478       4.5484      0.00000
    479       4.5489      0.00000
    480       4.5602      0.00000
    481       4.5607      0.00000
    482       4.5674      0.00000
    483       4.5688      0.00000
    484       4.5852      0.00000
    485       4.5873      0.00000
    486       4.5988      0.00000
    487       4.6003      0.00000
    488       4.6151      0.00000
    489       4.6284      0.00000
    490       4.6289      0.00000
    491       4.6386      0.00000
    492       4.6445      0.00000
    493       4.6590      0.00000
    494       4.6677      0.00000
    495       4.6736      0.00000
    496       4.6854      0.00000
    497       4.6866      0.00000
    498       4.6965      0.00000
    499       4.6975      0.00000
    500       4.7001      0.00000
    501       4.7161      0.00000
    502       4.7184      0.00000
    503       4.7231      0.00000
    504       4.7285      0.00000
    505       4.7373      0.00000
    506       4.7390      0.00000
    507       4.7480      0.00000
    508       4.7525      0.00000
    509       4.7587      0.00000
    510       4.7638      0.00000
    511       4.7757      0.00000
    512       4.7836      0.00000
    513       4.8111      0.00000
    514       4.8131      0.00000
    515       4.8202      0.00000
    516       4.8277      0.00000
    517       4.8294      0.00000
    518       4.8414      0.00000
    519       4.8498      0.00000
    520       4.8705      0.00000
    521       4.8786      0.00000
    522       4.8862      0.00000
    523       4.8924      0.00000
    524       4.9078      0.00000
    525       4.9179      0.00000
    526       4.9266      0.00000
    527       4.9336      0.00000
    528       4.9423      0.00000
    529       4.9661      0.00000
    530       4.9671      0.00000
    531       4.9922      0.00000
    532       4.9954      0.00000
    533       5.0074      0.00000
    534       5.0106      0.00000
    535       5.0318      0.00000
    536       5.0434      0.00000
    537       5.0607      0.00000
    538       5.0663      0.00000
    539       5.0694      0.00000
    540       5.0795      0.00000
    541       5.1067      0.00000
    542       5.1151      0.00000
    543       5.1545      0.00000
    544       5.1559      0.00000
    545       5.1902      0.00000
    546       5.1930      0.00000
    547       5.2054      0.00000
    548       5.2152      0.00000
    549       5.2597      0.00000
    550       5.3247      0.00000
    551       5.3418      0.00000
    552       5.3769      0.00000
    553       5.4097      0.00000
    554       5.4367      0.00000
    555       5.4450      0.00000
    556       5.4556      0.00000
    557       5.4812      0.00000
    558       5.5219      0.00000
    559       5.5571      0.00000
    560       5.5942      0.00000
    561       5.6123      0.00000
    562       5.6152      0.00000
    563       5.6317      0.00000
    564       5.6503      0.00000
    565       5.6698      0.00000
    566       5.6734      0.00000
    567       5.6842      0.00000
    568       5.6976      0.00000
    569       5.7091      0.00000
    570       5.7172      0.00000
    571       5.7269      0.00000
    572       5.7499      0.00000
    573       5.7514      0.00000
    574       5.7842      0.00000
    575       5.7898      0.00000
    576       7.8939      0.00000
    577       7.9964      0.00000
    578       8.1958      0.00000
    579       8.3663      0.00000
    580       9.0052      0.00000
    581       9.0338      0.00000
    582       9.0817      0.00000
    583       9.1347      0.00000
    584       9.7008      0.00000
    585       9.7361      0.00000
    586      10.2811      0.00000
    587      10.3271      0.00000
    588      10.4581      0.00000
    589      10.4912      0.00000
    590      10.5077      0.00000
    591      10.5931      0.00000
    592      10.6656      0.00000
    593      10.7012      0.00000
    594      10.7089      0.00000
    595      10.7169      0.00000
    596      10.7349      0.00000
    597      10.7424      0.00000
    598      10.7606      0.00000
    599      10.7797      0.00000
    600      10.9379      0.00000
    601      10.9499      0.00000
    602      11.0065      0.00000
    603      11.0248      0.00000
    604      11.0414      0.00000
    605      11.0424      0.00000
    606      11.0739      0.00000
    607      11.1043      0.00000
    608      11.1279      0.00000
    609      11.1597      0.00000
    610      11.2210      0.00000
    611      11.2432      0.00000
    612      11.2633      0.00000
    613      11.2657      0.00000
    614      11.2987      0.00000
    615      11.3045      0.00000
    616      11.3755      0.00000
    617      11.4152      0.00000
    618      11.4196      0.00000
    619      11.4604      0.00000
    620      11.4871      0.00000
    621      11.5222      0.00000
    622      11.5247      0.00000
    623      11.5554      0.00000
    624      11.5734      0.00000
    625      11.5940      0.00000
    626      11.6267      0.00000
    627      11.6511      0.00000
    628      11.6579      0.00000
    629      11.7211      0.00000
    630      11.7617      0.00000
    631      11.7998      0.00000
    632      11.8380      0.00000
    633      11.8465      0.00000
    634      11.8605      0.00000
    635      11.8661      0.00000
    636      11.8964      0.00000
    637      11.9925      0.00000
    638      12.0011      0.00000
    639      12.0127      0.00000
    640      12.0278      0.00000
    641      12.0525      0.00000
    642      12.0775      0.00000
    643      12.0963      0.00000
    644      12.1251      0.00000
    645      12.1800      0.00000
    646      12.2014      0.00000
    647      12.2148      0.00000
    648      12.2230      0.00000
    649      12.2689      0.00000
    650      12.2738      0.00000
    651      12.2869      0.00000
    652      12.2875      0.00000
    653      12.3030      0.00000
    654      12.3416      0.00000
    655      12.3680      0.00000
    656      12.4083      0.00000
    657      12.4115      0.00000
    658      12.4508      0.00000
    659      12.4759      0.00000
    660      12.4880      0.00000
    661      12.5020      0.00000
    662      12.5137      0.00000
    663      12.5323      0.00000
    664      12.5844      0.00000
    665      12.6404      0.00000
    666      12.6709      0.00000
    667      12.7073      0.00000
    668      12.7870      0.00000
    669      12.8328      0.00000
    670      12.8728      0.00000
    671      12.9027      0.00000
    672      12.9119      0.00000
    673      12.9351      0.00000
    674      12.9457      0.00000
    675      12.9770      0.00000
    676      13.0041      0.00000
    677      13.0567      0.00000
    678      13.0649      0.00000
    679      13.2393      0.00000
    680      13.2494      0.00000
    681      13.2766      0.00000
    682      13.2805      0.00000
    683      13.3453      0.00000
    684      13.3865      0.00000
    685      13.3918      0.00000
    686      13.4101      0.00000
    687      13.4179      0.00000
    688      13.4461      0.00000
    689      13.4599      0.00000
    690      13.4892      0.00000
    691      13.5279      0.00000
    692      13.5384      0.00000
    693      13.6315      0.00000
    694      13.6640      0.00000
    695      13.6982      0.00000
    696      13.7905      0.00000

 k-point     4 :       0.3333    0.0000    0.3333
  band No.  band energies     occupation 
      1     -50.5944      1.00000
      2     -50.5717      1.00000
      3     -50.5190      1.00000
      4     -50.5186      1.00000
      5     -50.5040      1.00000
      6     -50.5024      1.00000
      7     -50.5006      1.00000
      8     -50.4999      1.00000
      9     -50.4805      1.00000
     10     -50.4764      1.00000
     11     -50.4726      1.00000
     12     -50.4634      1.00000
     13     -50.4594      1.00000
     14     -50.4591      1.00000
     15     -50.4395      1.00000
     16     -50.4383      1.00000
     17     -50.4378      1.00000
     18     -50.4333      1.00000
     19     -50.4292      1.00000
     20     -50.4104      1.00000
     21     -50.4098      1.00000
     22     -50.4094      1.00000
     23     -50.4091      1.00000
     24     -50.4089      1.00000
     25     -50.4086      1.00000
     26     -50.4052      1.00000
     27     -50.3891      1.00000
     28     -50.3812      1.00000
     29     -50.3807      1.00000
     30     -50.3797      1.00000
     31     -50.3789      1.00000
     32     -50.3779      1.00000
     33     -50.3704      1.00000
     34     -50.3627      1.00000
     35     -50.3626      1.00000
     36     -50.3498      1.00000
     37     -50.3490      1.00000
     38     -50.3484      1.00000
     39     -50.3479      1.00000
     40     -50.3441      1.00000
     41     -50.3382      1.00000
     42     -50.3275      1.00000
     43     -50.3270      1.00000
     44     -50.3268      1.00000
     45     -50.3261      1.00000
     46     -50.3257      1.00000
     47     -50.3256      1.00000
     48     -50.3040      1.00000
     49     -50.3019      1.00000
     50     -50.2947      1.00000
     51     -50.2868      1.00000
     52     -50.2865      1.00000
     53     -50.2824      1.00000
     54     -50.2813      1.00000
     55     -50.2716      1.00000
     56     -50.2712      1.00000
     57     -50.2687      1.00000
     58     -50.2653      1.00000
     59     -50.2607      1.00000
     60     -50.2599      1.00000
     61     -50.2538      1.00000
     62     -50.2529      1.00000
     63     -50.2208      1.00000
     64     -50.2197      1.00000
     65     -50.2172      1.00000
     66     -50.2062      1.00000
     67     -50.2055      1.00000
     68     -50.2005      1.00000
     69     -50.1997      1.00000
     70     -46.8804      1.00000
     71     -46.4267      1.00000
     72     -46.3272      1.00000
     73     -18.9351      1.00000
     74     -18.7952      1.00000
     75     -18.7347      1.00000
     76     -18.4554      1.00000
     77     -18.3193      1.00000
     78     -18.2592      1.00000
     79     -18.2356      1.00000
     80     -18.2305      1.00000
     81     -18.1933      1.00000
     82     -18.1776      1.00000
     83     -18.1763      1.00000
     84     -18.1495      1.00000
     85     -18.1398      1.00000
     86     -18.1123      1.00000
     87     -18.0957      1.00000
     88     -18.0608      1.00000
     89     -18.0393      1.00000
     90     -18.0223      1.00000
     91     -18.0097      1.00000
     92     -18.0084      1.00000
     93     -17.9953      1.00000
     94     -17.9942      1.00000
     95     -17.9796      1.00000
     96     -17.9490      1.00000
     97     -17.9255      1.00000
     98     -17.9181      1.00000
     99     -17.8775      1.00000
    100     -16.0960      1.00000
    101     -15.9498      1.00000
    102     -15.9426      1.00000
    103     -15.9031      1.00000
    104     -15.8987      1.00000
    105     -15.8840      1.00000
    106     -15.8791      1.00000
    107     -15.8678      1.00000
    108     -15.8550      1.00000
    109     -15.8480      1.00000
    110     -15.8455      1.00000
    111     -15.8229      1.00000
    112     -15.8188      1.00000
    113     -15.8072      1.00000
    114     -15.7952      1.00000
    115     -15.7931      1.00000
    116     -15.7761      1.00000
    117     -15.7668      1.00000
    118     -15.7594      1.00000
    119     -15.7469      1.00000
    120     -15.7454      1.00000
    121     -15.7303      1.00000
    122     -15.7287      1.00000
    123     -15.7055      1.00000
    124     -15.6813      1.00000
    125     -15.6806      1.00000
    126     -15.6544      1.00000
    127     -15.6037      1.00000
    128     -15.5970      1.00000
    129     -15.5912      1.00000
    130     -15.5757      1.00000
    131     -15.5738      1.00000
    132     -15.5581      1.00000
    133     -15.5507      1.00000
    134     -15.5392      1.00000
    135     -15.5290      1.00000
    136     -15.5275      1.00000
    137     -15.5214      1.00000
    138     -15.5067      1.00000
    139     -15.5064      1.00000
    140     -15.4989      1.00000
    141     -15.4956      1.00000
    142     -15.4901      1.00000
    143     -15.4847      1.00000
    144     -15.4729      1.00000
    145     -15.4705      1.00000
    146     -15.4651      1.00000
    147     -15.4466      1.00000
    148     -15.4408      1.00000
    149     -15.4274      1.00000
    150     -15.4142      1.00000
    151     -15.4116      1.00000
    152     -15.3953      1.00000
    153     -15.3876      1.00000
    154     -15.3796      1.00000
    155     -15.3755      1.00000
    156     -15.3646      1.00000
    157     -15.3582      1.00000
    158     -15.3573      1.00000
    159     -15.3509      1.00000
    160     -15.3443      1.00000
    161     -15.3394      1.00000
    162     -15.3348      1.00000
    163     -15.3258      1.00000
    164     -15.3255      1.00000
    165     -15.3200      1.00000
    166     -15.3087      1.00000
    167     -15.3055      1.00000
    168     -15.2728      1.00000
    169     -15.2666      1.00000
    170     -15.2142      1.00000
    171     -15.2009      1.00000
    172      -6.0333      1.00000
    173      -5.8898      1.00000
    174      -5.8410      1.00000
    175      -5.8151      1.00000
    176      -5.7581      1.00000
    177      -5.7177      1.00000
    178      -5.6854      1.00000
    179      -5.6571      1.00000
    180      -5.5910      1.00000
    181      -5.5520      1.00000
    182      -5.5463      1.00000
    183      -5.5160      1.00000
    184      -5.4778      1.00000
    185      -5.4776      1.00000
    186      -5.4196      1.00000
    187      -5.4130      1.00000
    188      -5.3873      1.00000
    189      -5.3431      1.00000
    190      -5.3244      1.00000
    191      -5.3193      1.00000
    192      -5.2950      1.00000
    193      -5.2601      1.00000
    194      -5.2464      1.00000
    195      -5.1821      1.00000
    196      -4.1911      1.00000
    197      -4.0302      1.00000
    198      -3.9781      1.00000
    199      -3.9479      1.00000
    200      -3.9223      1.00000
    201      -3.8419      1.00000
    202      -3.8214      1.00000
    203      -3.7939      1.00000
    204      -3.7358      1.00000
    205      -3.7282      1.00000
    206      -3.6310      1.00000
    207      -3.6283      1.00000
    208      -3.5920      1.00000
    209      -3.5795      1.00000
    210      -3.5188      1.00000
    211      -3.5068      1.00000
    212      -3.5061      1.00000
    213      -3.4838      1.00000
    214      -3.4686      1.00000
    215      -3.4602      1.00000
    216      -3.4515      1.00000
    217      -3.4249      1.00000
    218      -3.4050      1.00000
    219      -3.3679      1.00000
    220      -3.3547      1.00000
    221      -3.3527      1.00000
    222      -3.3294      1.00000
    223      -3.3276      1.00000
    224      -3.2920      1.00000
    225      -3.2764      1.00000
    226      -3.2554      1.00000
    227      -3.2515      1.00000
    228      -3.2262      1.00000
    229      -3.2140      1.00000
    230      -3.2058      1.00000
    231      -3.1851      1.00000
    232      -3.1735      1.00000
    233      -3.1565      1.00000
    234      -3.1539      1.00000
    235      -3.1349      1.00000
    236      -3.1337      1.00000
    237      -3.1168      1.00000
    238      -3.0981      1.00000
    239      -3.0751      1.00000
    240      -3.0647      1.00000
    241      -3.0612      1.00000
    242      -3.0430      1.00000
    243      -3.0216      1.00000
    244      -2.9922      1.00000
    245      -2.9777      1.00000
    246      -2.9685      1.00000
    247      -2.9490      1.00000
    248      -2.9411      1.00000
    249      -2.9006      1.00000
    250      -2.8786      1.00000
    251      -2.8713      1.00000
    252      -2.8498      1.00000
    253      -2.8163      1.00000
    254      -2.8032      1.00000
    255      -2.7995      1.00000
    256      -2.7749      1.00000
    257      -2.7551      1.00000
    258      -2.7475      1.00000
    259      -2.7319      1.00000
    260      -2.7099      1.00000
    261      -2.6831      1.00000
    262      -2.6771      1.00000
    263      -2.6633      1.00000
    264      -2.6279      1.00000
    265      -2.5984      1.00000
    266      -2.5786      1.00000
    267      -2.4795      1.00000
    268      -2.0162      1.00000
    269      -1.9310      1.00000
    270      -1.9250      1.00000
    271      -1.8862      1.00000
    272      -1.8382      1.00000
    273      -1.8076      1.00000
    274      -1.8042      1.00000
    275      -1.7950      1.00000
    276      -1.7828      1.00000
    277      -1.7460      1.00000
    278      -1.7088      1.00000
    279      -1.6971      1.00000
    280      -1.6553      1.00000
    281      -1.6125      1.00000
    282      -1.5361      1.00000
    283      -1.5323      1.00000
    284      -1.4936      1.00000
    285      -1.4717      1.00000
    286      -1.4074      1.00000
    287      -1.3320      1.00000
    288      -1.3176      1.00000
    289      -1.2635      1.00000
    290      -1.2060      1.00000
    291      -1.1760      1.00000
    292      -1.1605      1.00000
    293      -1.1427      1.00000
    294      -1.0939      1.00000
    295      -1.0761      1.00000
    296      -1.0166      1.00000
    297      -1.0159      1.00000
    298      -0.9865      1.00000
    299      -0.9798      1.00000
    300      -0.9528      1.00000
    301      -0.9345      1.00000
    302      -0.9285      1.00000
    303      -0.9017      1.00000
    304      -0.8974      1.00000
    305      -0.8672      1.00000
    306      -0.8663      1.00000
    307      -0.8366      1.00000
    308      -0.8079      1.00000
    309      -0.7928      1.00000
    310      -0.7909      1.00000
    311      -0.7492      1.00000
    312      -0.7404      1.00000
    313      -0.7220      1.00000
    314      -0.7071      1.00000
    315      -0.6967      1.00000
    316      -0.6932      1.00000
    317      -0.6872      1.00000
    318      -0.6606      1.00000
    319      -0.6290      1.00000
    320      -0.6189      1.00000
    321      -0.6029      1.00000
    322      -0.5866      1.00000
    323      -0.5788      1.00000
    324      -0.5585      1.00000
    325      -0.5533      1.00000
    326      -0.5337      1.00000
    327      -0.5077      1.00000
    328      -0.5060      1.00000
    329      -0.4611      1.00000
    330      -0.4597      1.00000
    331      -0.4208      1.00000
    332      -0.4200      1.00000
    333      -0.4016      1.00000
    334      -0.3822      1.00000
    335      -0.3417      1.00000
    336      -0.3341      1.00000
    337      -0.2279      1.00000
    338      -0.2138      1.00000
    339      -0.1974      1.00000
    340      -0.1902      1.00000
    341      -0.1615      1.00000
    342      -0.1535      1.00000
    343      -0.0758      1.00000
    344      -0.0695      1.00000
    345      -0.0529      1.00000
    346      -0.0513      1.00000
    347      -0.0307      1.00000
    348      -0.0078      1.00000
    349      -0.0001      1.00000
    350       0.0017      1.00000
    351       0.0205      1.00000
    352       0.0308      1.00000
    353       0.0561      1.00000
    354       0.0653      1.00000
    355       0.0716      1.00000
    356       0.0849      1.00000
    357       0.0961      1.00000
    358       0.1263      1.00000
    359       0.1402      1.00000
    360       0.1481      1.00000
    361       0.1561      1.00000
    362       0.1694      1.00000
    363       0.2168      1.00000
    364       0.2613      1.00000
    365       0.2639      1.00000
    366       0.2893      1.00000
    367       0.3002      1.00000
    368       0.3240      1.00000
    369       0.3332      1.00000
    370       0.3417      1.00000
    371       0.3468      1.00000
    372       0.3498      1.00000
    373       0.3604      1.00000
    374       0.3834      1.00000
    375       0.3989      1.00000
    376       0.4195      1.00000
    377       0.4200      1.00000
    378       0.4502      1.00000
    379       0.4603      1.00000
    380       0.4918      1.00000
    381       0.4987      1.00000
    382       0.5159      1.00000
    383       0.5398      1.00000
    384       0.5516      1.00000
    385       0.5640      1.00000
    386       0.6254      1.00000
    387       0.6363      1.00000
    388       0.6957      1.00000
    389       0.7318      1.00000
    390       0.7775      1.00000
    391       0.7901      1.00000
    392       0.7961      1.00000
    393       0.8195      1.00000
    394       0.8279      1.00000
    395       0.8550      1.00000
    396       0.8660      1.00000
    397       0.8891      1.00000
    398       0.8902      1.00000
    399       0.9181      1.00000
    400       0.9287      1.00000
    401       0.9313      1.00000
    402       0.9721      1.00000
    403       0.9906      1.00000
    404       1.0028      1.00000
    405       1.0125      1.00000
    406       1.0162      1.00000
    407       1.0460      1.00000
    408       1.0742      1.00000
    409       1.0774      1.00000
    410       1.1107      1.00000
    411       1.1157      1.00000
    412       1.1665      1.00000
    413       1.1744      1.00000
    414       1.1964      1.00000
    415       1.1994      1.00000
    416       1.2205      1.00000
    417       1.2252      1.00000
    418       1.2351      1.00000
    419       1.2451      1.00000
    420       1.2552      1.00000
    421       1.2804      1.00000
    422       1.2902      1.00000
    423       1.3015      1.00000
    424       1.3278      1.00000
    425       1.3482      1.00000
    426       1.3489      1.00000
    427       1.3684      1.00000
    428       1.3732      1.00000
    429       1.3811      1.00000
    430       1.3977      1.00000
    431       1.4061      1.00000
    432       1.4089      1.00000
    433       1.4320      1.00000
    434       1.4325      1.00000
    435       1.4401      1.00000
    436       1.4648      1.00000
    437       1.4721      1.00000
    438       1.4934      1.00000
    439       1.5222      1.00000
    440       1.5376      1.00000
    441       1.5454      1.00000
    442       1.5676      1.00000
    443       1.5927      1.00000
    444       1.6283      1.00000
    445       1.6514      1.00000
    446       1.6633      1.00000
    447       1.6727      1.00000
    448       1.6753      1.00000
    449       1.6848      1.00000
    450       1.7357      1.00000
    451       1.7584      1.00000
    452       1.7968      1.00000
    453       1.8186      1.00000
    454       1.8513      1.00000
    455       1.8535      1.00000
    456       1.9449      1.00000
    457       2.0088      1.00000
    458       2.0190      1.00000
    459       2.0760      1.00000
    460       3.2510      1.00000
    461       4.3107      0.00000
    462       4.3515      0.00000
    463       4.3867      0.00000
    464       4.3934      0.00000
    465       4.3983      0.00000
    466       4.4104      0.00000
    467       4.4143      0.00000
    468       4.4491      0.00000
    469       4.4544      0.00000
    470       4.4614      0.00000
    471       4.4732      0.00000
    472       4.4813      0.00000
    473       4.4874      0.00000
    474       4.5001      0.00000
    475       4.5163      0.00000
    476       4.5177      0.00000
    477       4.5304      0.00000
    478       4.5389      0.00000
    479       4.5483      0.00000
    480       4.5586      0.00000
    481       4.5646      0.00000
    482       4.5719      0.00000
    483       4.5775      0.00000
    484       4.5827      0.00000
    485       4.5933      0.00000
    486       4.6069      0.00000
    487       4.6131      0.00000
    488       4.6189      0.00000
    489       4.6257      0.00000
    490       4.6288      0.00000
    491       4.6376      0.00000
    492       4.6463      0.00000
    493       4.6600      0.00000
    494       4.6693      0.00000
    495       4.6715      0.00000
    496       4.6860      0.00000
    497       4.6870      0.00000
    498       4.6956      0.00000
    499       4.7025      0.00000
    500       4.7103      0.00000
    501       4.7215      0.00000
    502       4.7265      0.00000
    503       4.7335      0.00000
    504       4.7366      0.00000
    505       4.7445      0.00000
    506       4.7532      0.00000
    507       4.7592      0.00000
    508       4.7680      0.00000
    509       4.7695      0.00000
    510       4.7798      0.00000
    511       4.7903      0.00000
    512       4.7912      0.00000
    513       4.8001      0.00000
    514       4.8091      0.00000
    515       4.8148      0.00000
    516       4.8272      0.00000
    517       4.8281      0.00000
    518       4.8448      0.00000
    519       4.8458      0.00000
    520       4.8543      0.00000
    521       4.8706      0.00000
    522       4.8797      0.00000
    523       4.8882      0.00000
    524       4.8951      0.00000
    525       4.9182      0.00000
    526       4.9194      0.00000
    527       4.9272      0.00000
    528       4.9356      0.00000
    529       4.9479      0.00000
    530       4.9524      0.00000
    531       4.9575      0.00000
    532       4.9746      0.00000
    533       4.9850      0.00000
    534       4.9893      0.00000
    535       5.0093      0.00000
    536       5.0192      0.00000
    537       5.0353      0.00000
    538       5.0416      0.00000
    539       5.0661      0.00000
    540       5.0940      0.00000
    541       5.0947      0.00000
    542       5.1056      0.00000
    543       5.1563      0.00000
    544       5.1615      0.00000
    545       5.1759      0.00000
    546       5.1991      0.00000
    547       5.2114      0.00000
    548       5.2184      0.00000
    549       5.2510      0.00000
    550       5.2973      0.00000
    551       5.3152      0.00000
    552       5.3634      0.00000
    553       5.4410      0.00000
    554       5.4589      0.00000
    555       5.4720      0.00000
    556       5.4982      0.00000
    557       5.5092      0.00000
    558       5.5355      0.00000
    559       5.5741      0.00000
    560       5.5924      0.00000
    561       5.5954      0.00000
    562       5.6182      0.00000
    563       5.6207      0.00000
    564       5.6344      0.00000
    565       5.6452      0.00000
    566       5.6669      0.00000
    567       5.6782      0.00000
    568       5.7024      0.00000
    569       5.7139      0.00000
    570       5.7248      0.00000
    571       5.7469      0.00000
    572       5.7498      0.00000
    573       5.7585      0.00000
    574       5.7894      0.00000
    575       5.7974      0.00000
    576       7.8927      0.00000
    577       7.9994      0.00000
    578       8.2758      0.00000
    579       8.6004      0.00000
    580       9.1151      0.00000
    581       9.2428      0.00000
    582       9.3061      0.00000
    583       9.3349      0.00000
    584       9.4298      0.00000
    585       9.8799      0.00000
    586       9.9250      0.00000
    587       9.9330      0.00000
    588       9.9522      0.00000
    589       9.9651      0.00000
    590      10.3883      0.00000
    591      10.4133      0.00000
    592      10.5849      0.00000
    593      10.6242      0.00000
    594      10.7294      0.00000
    595      10.8221      0.00000
    596      10.8367      0.00000
    597      10.8472      0.00000
    598      10.8690      0.00000
    599      10.8824      0.00000
    600      10.9112      0.00000
    601      10.9492      0.00000
    602      10.9670      0.00000
    603      11.0393      0.00000
    604      11.1422      0.00000
    605      11.2097      0.00000
    606      11.2114      0.00000
    607      11.2381      0.00000
    608      11.2569      0.00000
    609      11.2762      0.00000
    610      11.2882      0.00000
    611      11.3113      0.00000
    612      11.3238      0.00000
    613      11.3452      0.00000
    614      11.3553      0.00000
    615      11.3929      0.00000
    616      11.3990      0.00000
    617      11.4104      0.00000
    618      11.4607      0.00000
    619      11.4658      0.00000
    620      11.5110      0.00000
    621      11.5120      0.00000
    622      11.5579      0.00000
    623      11.6110      0.00000
    624      11.6249      0.00000
    625      11.6435      0.00000
    626      11.6549      0.00000
    627      11.6686      0.00000
    628      11.6718      0.00000
    629      11.7157      0.00000
    630      11.7769      0.00000
    631      11.7873      0.00000
    632      11.7927      0.00000
    633      11.8394      0.00000
    634      11.8894      0.00000
    635      11.9056      0.00000
    636      11.9250      0.00000
    637      11.9430      0.00000
    638      12.0012      0.00000
    639      12.0247      0.00000
    640      12.0259      0.00000
    641      12.0557      0.00000
    642      12.0642      0.00000
    643      12.0943      0.00000
    644      12.0977      0.00000
    645      12.1178      0.00000
    646      12.1384      0.00000
    647      12.1946      0.00000
    648      12.2057      0.00000
    649      12.2081      0.00000
    650      12.2540      0.00000
    651      12.2549      0.00000
    652      12.2890      0.00000
    653      12.3089      0.00000
    654      12.3411      0.00000
    655      12.3531      0.00000
    656      12.3796      0.00000
    657      12.4116      0.00000
    658      12.4206      0.00000
    659      12.4586      0.00000
    660      12.4686      0.00000
    661      12.4914      0.00000
    662      12.5008      0.00000
    663      12.6001      0.00000
    664      12.6225      0.00000
    665      12.6536      0.00000
    666      12.6703      0.00000
    667      12.6889      0.00000
    668      12.7534      0.00000
    669      12.7810      0.00000
    670      12.8133      0.00000
    671      12.8315      0.00000
    672      12.8355      0.00000
    673      13.0095      0.00000
    674      13.0447      0.00000
    675      13.0481      0.00000
    676      13.1105      0.00000
    677      13.1325      0.00000
    678      13.1440      0.00000
    679      13.1553      0.00000
    680      13.1724      0.00000
    681      13.1866      0.00000
    682      13.2268      0.00000
    683      13.2554      0.00000
    684      13.3003      0.00000
    685      13.3403      0.00000
    686      13.4654      0.00000
    687      13.4954      0.00000
    688      13.5073      0.00000
    689      13.5689      0.00000
    690      13.5860      0.00000
    691      13.6048      0.00000
    692      13.6347      0.00000
    693      13.6394      0.00000
    694      13.6656      0.00000
    695      13.7122      0.00000
    696      13.7369      0.00000

 k-point     5 :      -0.3333    0.0000    0.3333
  band No.  band energies     occupation 
      1     -50.5944      1.00000
      2     -50.5717      1.00000
      3     -50.5190      1.00000
      4     -50.5186      1.00000
      5     -50.5040      1.00000
      6     -50.5024      1.00000
      7     -50.5006      1.00000
      8     -50.4999      1.00000
      9     -50.4805      1.00000
     10     -50.4764      1.00000
     11     -50.4726      1.00000
     12     -50.4634      1.00000
     13     -50.4594      1.00000
     14     -50.4591      1.00000
     15     -50.4395      1.00000
     16     -50.4383      1.00000
     17     -50.4378      1.00000
     18     -50.4333      1.00000
     19     -50.4292      1.00000
     20     -50.4104      1.00000
     21     -50.4098      1.00000
     22     -50.4094      1.00000
     23     -50.4091      1.00000
     24     -50.4089      1.00000
     25     -50.4086      1.00000
     26     -50.4052      1.00000
     27     -50.3891      1.00000
     28     -50.3812      1.00000
     29     -50.3807      1.00000
     30     -50.3797      1.00000
     31     -50.3789      1.00000
     32     -50.3779      1.00000
     33     -50.3704      1.00000
     34     -50.3627      1.00000
     35     -50.3626      1.00000
     36     -50.3498      1.00000
     37     -50.3490      1.00000
     38     -50.3484      1.00000
     39     -50.3479      1.00000
     40     -50.3441      1.00000
     41     -50.3382      1.00000
     42     -50.3275      1.00000
     43     -50.3270      1.00000
     44     -50.3268      1.00000
     45     -50.3261      1.00000
     46     -50.3257      1.00000
     47     -50.3256      1.00000
     48     -50.3040      1.00000
     49     -50.3019      1.00000
     50     -50.2947      1.00000
     51     -50.2868      1.00000
     52     -50.2865      1.00000
     53     -50.2824      1.00000
     54     -50.2813      1.00000
     55     -50.2716      1.00000
     56     -50.2712      1.00000
     57     -50.2687      1.00000
     58     -50.2653      1.00000
     59     -50.2607      1.00000
     60     -50.2599      1.00000
     61     -50.2538      1.00000
     62     -50.2529      1.00000
     63     -50.2208      1.00000
     64     -50.2197      1.00000
     65     -50.2172      1.00000
     66     -50.2062      1.00000
     67     -50.2055      1.00000
     68     -50.2005      1.00000
     69     -50.1997      1.00000
     70     -46.8805      1.00000
     71     -46.4267      1.00000
     72     -46.3272      1.00000
     73     -18.9352      1.00000
     74     -18.7951      1.00000
     75     -18.7347      1.00000
     76     -18.4539      1.00000
     77     -18.3214      1.00000
     78     -18.2594      1.00000
     79     -18.2358      1.00000
     80     -18.2332      1.00000
     81     -18.1925      1.00000
     82     -18.1761      1.00000
     83     -18.1758      1.00000
     84     -18.1488      1.00000
     85     -18.1375      1.00000
     86     -18.1133      1.00000
     87     -18.0983      1.00000
     88     -18.0573      1.00000
     89     -18.0415      1.00000
     90     -18.0248      1.00000
     91     -18.0087      1.00000
     92     -18.0082      1.00000
     93     -17.9933      1.00000
     94     -17.9916      1.00000
     95     -17.9805      1.00000
     96     -17.9501      1.00000
     97     -17.9260      1.00000
     98     -17.9189      1.00000
     99     -17.8772      1.00000
    100     -16.0964      1.00000
    101     -15.9414      1.00000
    102     -15.9402      1.00000
    103     -15.9038      1.00000
    104     -15.9010      1.00000
    105     -15.8935      1.00000
    106     -15.8811      1.00000
    107     -15.8789      1.00000
    108     -15.8528      1.00000
    109     -15.8465      1.00000
    110     -15.8341      1.00000
    111     -15.8255      1.00000
    112     -15.8121      1.00000
    113     -15.8065      1.00000
    114     -15.7978      1.00000
    115     -15.7910      1.00000
    116     -15.7835      1.00000
    117     -15.7741      1.00000
    118     -15.7615      1.00000
    119     -15.7529      1.00000
    120     -15.7459      1.00000
    121     -15.7229      1.00000
    122     -15.7150      1.00000
    123     -15.6954      1.00000
    124     -15.6845      1.00000
    125     -15.6824      1.00000
    126     -15.6575      1.00000
    127     -15.6058      1.00000
    128     -15.5968      1.00000
    129     -15.5895      1.00000
    130     -15.5716      1.00000
    131     -15.5696      1.00000
    132     -15.5652      1.00000
    133     -15.5576      1.00000
    134     -15.5436      1.00000
    135     -15.5321      1.00000
    136     -15.5215      1.00000
    137     -15.5127      1.00000
    138     -15.5124      1.00000
    139     -15.5020      1.00000
    140     -15.4988      1.00000
    141     -15.4967      1.00000
    142     -15.4901      1.00000
    143     -15.4890      1.00000
    144     -15.4785      1.00000
    145     -15.4750      1.00000
    146     -15.4605      1.00000
    147     -15.4424      1.00000
    148     -15.4365      1.00000
    149     -15.4252      1.00000
    150     -15.4181      1.00000
    151     -15.4143      1.00000
    152     -15.3941      1.00000
    153     -15.3892      1.00000
    154     -15.3792      1.00000
    155     -15.3685      1.00000
    156     -15.3678      1.00000
    157     -15.3631      1.00000
    158     -15.3533      1.00000
    159     -15.3500      1.00000
    160     -15.3434      1.00000
    161     -15.3405      1.00000
    162     -15.3382      1.00000
    163     -15.3242      1.00000
    164     -15.3214      1.00000
    165     -15.3189      1.00000
    166     -15.3105      1.00000
    167     -15.3084      1.00000
    168     -15.2728      1.00000
    169     -15.2665      1.00000
    170     -15.2142      1.00000
    171     -15.2009      1.00000
    172      -6.0306      1.00000
    173      -5.8986      1.00000
    174      -5.8398      1.00000
    175      -5.8125      1.00000
    176      -5.7597      1.00000
    177      -5.7059      1.00000
    178      -5.6891      1.00000
    179      -5.6675      1.00000
    180      -5.5781      1.00000
    181      -5.5576      1.00000
    182      -5.5483      1.00000
    183      -5.5063      1.00000
    184      -5.4895      1.00000
    185      -5.4582      1.00000
    186      -5.4342      1.00000
    187      -5.4195      1.00000
    188      -5.3832      1.00000
    189      -5.3536      1.00000
    190      -5.3189      1.00000
    191      -5.3103      1.00000
    192      -5.3004      1.00000
    193      -5.2511      1.00000
    194      -5.2461      1.00000
    195      -5.1901      1.00000
    196      -4.1861      1.00000
    197      -4.0300      1.00000
    198      -3.9748      1.00000
    199      -3.9486      1.00000
    200      -3.9279      1.00000
    201      -3.8592      1.00000
    202      -3.8177      1.00000
    203      -3.7802      1.00000
    204      -3.7365      1.00000
    205      -3.7339      1.00000
    206      -3.6328      1.00000
    207      -3.6260      1.00000
    208      -3.5952      1.00000
    209      -3.5804      1.00000
    210      -3.5391      1.00000
    211      -3.5028      1.00000
    212      -3.4926      1.00000
    213      -3.4693      1.00000
    214      -3.4665      1.00000
    215      -3.4558      1.00000
    216      -3.4481      1.00000
    217      -3.4199      1.00000
    218      -3.4101      1.00000
    219      -3.3670      1.00000
    220      -3.3595      1.00000
    221      -3.3498      1.00000
    222      -3.3276      1.00000
    223      -3.3232      1.00000
    224      -3.2849      1.00000
    225      -3.2839      1.00000
    226      -3.2552      1.00000
    227      -3.2494      1.00000
    228      -3.2265      1.00000
    229      -3.2037      1.00000
    230      -3.2004      1.00000
    231      -3.1799      1.00000
    232      -3.1787      1.00000
    233      -3.1717      1.00000
    234      -3.1490      1.00000
    235      -3.1387      1.00000
    236      -3.1345      1.00000
    237      -3.1180      1.00000
    238      -3.1162      1.00000
    239      -3.0981      1.00000
    240      -3.0786      1.00000
    241      -3.0451      1.00000
    242      -3.0379      1.00000
    243      -3.0290      1.00000
    244      -2.9911      1.00000
    245      -2.9772      1.00000
    246      -2.9749      1.00000
    247      -2.9607      1.00000
    248      -2.9380      1.00000
    249      -2.9093      1.00000
    250      -2.8786      1.00000
    251      -2.8670      1.00000
    252      -2.8239      1.00000
    253      -2.8196      1.00000
    254      -2.7897      1.00000
    255      -2.7795      1.00000
    256      -2.7753      1.00000
    257      -2.7733      1.00000
    258      -2.7357      1.00000
    259      -2.7323      1.00000
    260      -2.6981      1.00000
    261      -2.6844      1.00000
    262      -2.6668      1.00000
    263      -2.6413      1.00000
    264      -2.6409      1.00000
    265      -2.6189      1.00000
    266      -2.6079      1.00000
    267      -2.4666      1.00000
    268      -2.0201      1.00000
    269      -1.9414      1.00000
    270      -1.9179      1.00000
    271      -1.8872      1.00000
    272      -1.8299      1.00000
    273      -1.8109      1.00000
    274      -1.8006      1.00000
    275      -1.7833      1.00000
    276      -1.7808      1.00000
    277      -1.7518      1.00000
    278      -1.7056      1.00000
    279      -1.6907      1.00000
    280      -1.6772      1.00000
    281      -1.6116      1.00000
    282      -1.5263      1.00000
    283      -1.5222      1.00000
    284      -1.4959      1.00000
    285      -1.4803      1.00000
    286      -1.4030      1.00000
    287      -1.3374      1.00000
    288      -1.3313      1.00000
    289      -1.2590      1.00000
    290      -1.2308      1.00000
    291      -1.1728      1.00000
    292      -1.1369      1.00000
    293      -1.1351      1.00000
    294      -1.1121      1.00000
    295      -1.0811      1.00000
    296      -1.0338      1.00000
    297      -1.0155      1.00000
    298      -0.9868      1.00000
    299      -0.9820      1.00000
    300      -0.9606      1.00000
    301      -0.9221      1.00000
    302      -0.9216      1.00000
    303      -0.8942      1.00000
    304      -0.8771      1.00000
    305      -0.8728      1.00000
    306      -0.8471      1.00000
    307      -0.8266      1.00000
    308      -0.8222      1.00000
    309      -0.8068      1.00000
    310      -0.7954      1.00000
    311      -0.7761      1.00000
    312      -0.7421      1.00000
    313      -0.7315      1.00000
    314      -0.6973      1.00000
    315      -0.6827      1.00000
    316      -0.6790      1.00000
    317      -0.6621      1.00000
    318      -0.6504      1.00000
    319      -0.6423      1.00000
    320      -0.6116      1.00000
    321      -0.6039      1.00000
    322      -0.5796      1.00000
    323      -0.5745      1.00000
    324      -0.5614      1.00000
    325      -0.5590      1.00000
    326      -0.5435      1.00000
    327      -0.5120      1.00000
    328      -0.4946      1.00000
    329      -0.4688      1.00000
    330      -0.4674      1.00000
    331      -0.4311      1.00000
    332      -0.4177      1.00000
    333      -0.3911      1.00000
    334      -0.3613      1.00000
    335      -0.3352      1.00000
    336      -0.3034      1.00000
    337      -0.2497      1.00000
    338      -0.2347      1.00000
    339      -0.2322      1.00000
    340      -0.2054      1.00000
    341      -0.1462      1.00000
    342      -0.1419      1.00000
    343      -0.0941      1.00000
    344      -0.0710      1.00000
    345      -0.0527      1.00000
    346      -0.0474      1.00000
    347      -0.0238      1.00000
    348      -0.0203      1.00000
    349       0.0024      1.00000
    350       0.0027      1.00000
    351       0.0158      1.00000
    352       0.0273      1.00000
    353       0.0344      1.00000
    354       0.0698      1.00000
    355       0.0733      1.00000
    356       0.0855      1.00000
    357       0.1040      1.00000
    358       0.1144      1.00000
    359       0.1383      1.00000
    360       0.1443      1.00000
    361       0.1686      1.00000
    362       0.1748      1.00000
    363       0.2447      1.00000
    364       0.2629      1.00000
    365       0.2664      1.00000
    366       0.2856      1.00000
    367       0.2969      1.00000
    368       0.3139      1.00000
    369       0.3220      1.00000
    370       0.3421      1.00000
    371       0.3464      1.00000
    372       0.3607      1.00000
    373       0.3768      1.00000
    374       0.3887      1.00000
    375       0.3900      1.00000
    376       0.4110      1.00000
    377       0.4342      1.00000
    378       0.4385      1.00000
    379       0.4792      1.00000
    380       0.4855      1.00000
    381       0.4931      1.00000
    382       0.5395      1.00000
    383       0.5498      1.00000
    384       0.5536      1.00000
    385       0.5721      1.00000
    386       0.6064      1.00000
    387       0.6324      1.00000
    388       0.6808      1.00000
    389       0.7155      1.00000
    390       0.7750      1.00000
    391       0.7842      1.00000
    392       0.8064      1.00000
    393       0.8224      1.00000
    394       0.8454      1.00000
    395       0.8471      1.00000
    396       0.8678      1.00000
    397       0.8769      1.00000
    398       0.8936      1.00000
    399       0.9201      1.00000
    400       0.9375      1.00000
    401       0.9383      1.00000
    402       0.9703      1.00000
    403       0.9809      1.00000
    404       0.9997      1.00000
    405       1.0016      1.00000
    406       1.0204      1.00000
    407       1.0540      1.00000
    408       1.0828      1.00000
    409       1.0858      1.00000
    410       1.1028      1.00000
    411       1.1148      1.00000
    412       1.1629      1.00000
    413       1.1749      1.00000
    414       1.1820      1.00000
    415       1.1943      1.00000
    416       1.2214      1.00000
    417       1.2267      1.00000
    418       1.2368      1.00000
    419       1.2526      1.00000
    420       1.2556      1.00000
    421       1.2842      1.00000
    422       1.2873      1.00000
    423       1.2986      1.00000
    424       1.3415      1.00000
    425       1.3435      1.00000
    426       1.3514      1.00000
    427       1.3585      1.00000
    428       1.3683      1.00000
    429       1.3753      1.00000
    430       1.3940      1.00000
    431       1.4034      1.00000
    432       1.4077      1.00000
    433       1.4359      1.00000
    434       1.4394      1.00000
    435       1.4455      1.00000
    436       1.4711      1.00000
    437       1.4800      1.00000
    438       1.5071      1.00000
    439       1.5142      1.00000
    440       1.5341      1.00000
    441       1.5403      1.00000
    442       1.5643      1.00000
    443       1.6002      1.00000
    444       1.6010      1.00000
    445       1.6433      1.00000
    446       1.6579      1.00000
    447       1.6617      1.00000
    448       1.6907      1.00000
    449       1.7100      1.00000
    450       1.7488      1.00000
    451       1.7606      1.00000
    452       1.7980      1.00000
    453       1.8134      1.00000
    454       1.8444      1.00000
    455       1.8522      1.00000
    456       1.9425      1.00000
    457       1.9999      1.00000
    458       2.0271      1.00000
    459       2.0764      1.00000
    460       3.2506      1.00000
    461       4.3089      0.00000
    462       4.3536      0.00000
    463       4.3850      0.00000
    464       4.3908      0.00000
    465       4.3984      0.00000
    466       4.4097      0.00000
    467       4.4172      0.00000
    468       4.4522      0.00000
    469       4.4591      0.00000
    470       4.4647      0.00000
    471       4.4661      0.00000
    472       4.4839      0.00000
    473       4.4842      0.00000
    474       4.4997      0.00000
    475       4.5142      0.00000
    476       4.5148      0.00000
    477       4.5333      0.00000
    478       4.5424      0.00000
    479       4.5473      0.00000
    480       4.5585      0.00000
    481       4.5604      0.00000
    482       4.5735      0.00000
    483       4.5763      0.00000
    484       4.5830      0.00000
    485       4.5976      0.00000
    486       4.6081      0.00000
    487       4.6150      0.00000
    488       4.6168      0.00000
    489       4.6226      0.00000
    490       4.6250      0.00000
    491       4.6398      0.00000
    492       4.6531      0.00000
    493       4.6604      0.00000
    494       4.6686      0.00000
    495       4.6725      0.00000
    496       4.6813      0.00000
    497       4.6827      0.00000
    498       4.6972      0.00000
    499       4.7003      0.00000
    500       4.7118      0.00000
    501       4.7208      0.00000
    502       4.7209      0.00000
    503       4.7292      0.00000
    504       4.7340      0.00000
    505       4.7484      0.00000
    506       4.7504      0.00000
    507       4.7617      0.00000
    508       4.7653      0.00000
    509       4.7772      0.00000
    510       4.7779      0.00000
    511       4.7904      0.00000
    512       4.7943      0.00000
    513       4.8027      0.00000
    514       4.8058      0.00000
    515       4.8201      0.00000
    516       4.8294      0.00000
    517       4.8372      0.00000
    518       4.8403      0.00000
    519       4.8530      0.00000
    520       4.8557      0.00000
    521       4.8667      0.00000
    522       4.8803      0.00000
    523       4.8854      0.00000
    524       4.9011      0.00000
    525       4.9171      0.00000
    526       4.9250      0.00000
    527       4.9317      0.00000
    528       4.9416      0.00000
    529       4.9432      0.00000
    530       4.9490      0.00000
    531       4.9593      0.00000
    532       4.9613      0.00000
    533       4.9809      0.00000
    534       4.9917      0.00000
    535       4.9998      0.00000
    536       5.0126      0.00000
    537       5.0364      0.00000
    538       5.0418      0.00000
    539       5.0748      0.00000
    540       5.0935      0.00000
    541       5.0992      0.00000
    542       5.1103      0.00000
    543       5.1446      0.00000
    544       5.1498      0.00000
    545       5.1722      0.00000
    546       5.2119      0.00000
    547       5.2155      0.00000
    548       5.2380      0.00000
    549       5.2485      0.00000
    550       5.2844      0.00000
    551       5.3015      0.00000
    552       5.3707      0.00000
    553       5.4466      0.00000
    554       5.4567      0.00000
    555       5.4702      0.00000
    556       5.5012      0.00000
    557       5.5040      0.00000
    558       5.5442      0.00000
    559       5.5631      0.00000
    560       5.5979      0.00000
    561       5.5982      0.00000
    562       5.6190      0.00000
    563       5.6222      0.00000
    564       5.6299      0.00000
    565       5.6366      0.00000
    566       5.6765      0.00000
    567       5.6834      0.00000
    568       5.6994      0.00000
    569       5.7154      0.00000
    570       5.7197      0.00000
    571       5.7431      0.00000
    572       5.7465      0.00000
    573       5.7577      0.00000
    574       5.7938      0.00000
    575       5.7997      0.00000
    576       7.8924      0.00000
    577       7.9994      0.00000
    578       8.2589      0.00000
    579       8.6320      0.00000
    580       9.1225      0.00000
    581       9.2488      0.00000
    582       9.3021      0.00000
    583       9.3306      0.00000
    584       9.4226      0.00000
    585       9.8650      0.00000
    586       9.9172      0.00000
    587       9.9186      0.00000
    588       9.9554      0.00000
    589       9.9590      0.00000
    590      10.3932      0.00000
    591      10.4249      0.00000
    592      10.5989      0.00000
    593      10.6283      0.00000
    594      10.7640      0.00000
    595      10.7914      0.00000
    596      10.8211      0.00000
    597      10.8342      0.00000
    598      10.8666      0.00000
    599      10.8779      0.00000
    600      10.9258      0.00000
    601      10.9628      0.00000
    602      10.9752      0.00000
    603      11.0254      0.00000
    604      11.1468      0.00000
    605      11.1792      0.00000
    606      11.2000      0.00000
    607      11.2222      0.00000
    608      11.2525      0.00000
    609      11.2985      0.00000
    610      11.2992      0.00000
    611      11.3133      0.00000
    612      11.3374      0.00000
    613      11.3451      0.00000
    614      11.3590      0.00000
    615      11.3801      0.00000
    616      11.3818      0.00000
    617      11.4185      0.00000
    618      11.4514      0.00000
    619      11.4595      0.00000
    620      11.4970      0.00000
    621      11.5489      0.00000
    622      11.5723      0.00000
    623      11.6085      0.00000
    624      11.6201      0.00000
    625      11.6326      0.00000
    626      11.6554      0.00000
    627      11.6790      0.00000
    628      11.6826      0.00000
    629      11.7517      0.00000
    630      11.7907      0.00000
    631      11.7918      0.00000
    632      11.8011      0.00000
    633      11.8459      0.00000
    634      11.8891      0.00000
    635      11.9046      0.00000
    636      11.9174      0.00000
    637      11.9450      0.00000
    638      11.9485      0.00000
    639      11.9877      0.00000
    640      11.9952      0.00000
    641      12.0608      0.00000
    642      12.0657      0.00000
    643      12.0693      0.00000
    644      12.1061      0.00000
    645      12.1267      0.00000
    646      12.1477      0.00000
    647      12.1767      0.00000
    648      12.2094      0.00000
    649      12.2175      0.00000
    650      12.2626      0.00000
    651      12.2801      0.00000
    652      12.3068      0.00000
    653      12.3252      0.00000
    654      12.3523      0.00000
    655      12.3627      0.00000
    656      12.4051      0.00000
    657      12.4270      0.00000
    658      12.4343      0.00000
    659      12.4575      0.00000
    660      12.4634      0.00000
    661      12.5047      0.00000
    662      12.5157      0.00000
    663      12.5590      0.00000
    664      12.5912      0.00000
    665      12.6173      0.00000
    666      12.6517      0.00000
    667      12.6848      0.00000
    668      12.7608      0.00000
    669      12.7903      0.00000
    670      12.8034      0.00000
    671      12.8429      0.00000
    672      12.8474      0.00000
    673      12.9894      0.00000
    674      13.0851      0.00000
    675      13.0860      0.00000
    676      13.1091      0.00000
    677      13.1153      0.00000
    678      13.1417      0.00000
    679      13.1514      0.00000
    680      13.1652      0.00000
    681      13.2007      0.00000
    682      13.2395      0.00000
    683      13.2734      0.00000
    684      13.2901      0.00000
    685      13.3106      0.00000
    686      13.4308      0.00000
    687      13.4762      0.00000
    688      13.4922      0.00000
    689      13.5506      0.00000
    690      13.5683      0.00000
    691      13.5983      0.00000
    692      13.6480      0.00000
    693      13.6531      0.00000
    694      13.7065      0.00000
    695      13.7310      0.00000
    696      13.7670      0.00000


--------------------------------------------------------------------------------------------------------


 soft charge-density along one line, spin component           1
         0         1         2         3         4         5         6         7         8         9
 total charge-density along one line

 soft charge-density along one line, spin component           2
         0         1         2         3         4         5         6         7         8         9
 total charge-density along one line

 pseudopotential strength for first ion, spin component:           1
-53.018   0.004  -0.001  10.982  -0.001   0.000  -0.004  -0.012
  0.004 -53.053   0.087  -0.001  10.996  -0.029  -0.000  -0.003
 -0.001   0.087 -52.994   0.000  -0.029  10.977  -0.003  -0.000
 10.982  -0.001   0.000   4.834   0.000  -0.000   0.002   0.000
 -0.001  10.996  -0.029   0.000   4.831   0.005   0.000   0.001
  0.000  -0.029  10.977  -0.000   0.005   4.834   0.001   0.000
 -0.004  -0.000  -0.003   0.002   0.000   0.001 -10.997   0.075
 -0.012  -0.003  -0.000   0.000   0.001   0.000   0.075 -11.050
  0.002  -0.012   0.009  -0.000   0.003  -0.006   0.001   0.000
 -0.000   0.011  -0.014   0.000  -0.007   0.004   0.000   0.000
  0.003  -0.001  -0.002  -0.001   0.002   0.001  -0.001  -0.002
 -0.003  -0.000  -0.003   0.002   0.000   0.001 -11.465   0.076
 -0.012  -0.003  -0.000   0.000   0.001   0.000   0.076 -11.519
  0.002  -0.012   0.009  -0.000   0.004  -0.006   0.001   0.000
 -0.000   0.010  -0.014   0.000  -0.007   0.004   0.000   0.000
  0.003  -0.001  -0.002  -0.001   0.002   0.001  -0.001  -0.002
  0.001   0.003  -0.000   0.000   0.001  -0.000   0.000  -0.001
  0.001   0.006  -0.000   0.001   0.004  -0.000   0.000  -0.001
 pseudopotential strength for first ion, spin component:           2
-49.246   0.004  -0.001   9.397  -0.002   0.001   0.005  -0.032
  0.004 -49.265   0.080  -0.002   9.404  -0.033   0.001  -0.005
 -0.001   0.080 -49.202   0.001  -0.033   9.378  -0.004   0.001
  9.397  -0.002   0.001   5.302  -0.000   0.000  -0.004   0.015
 -0.002   9.404  -0.033  -0.000   5.300  -0.002  -0.001   0.002
  0.001  -0.033   9.378   0.000  -0.002   5.298   0.002  -0.001
  0.005   0.001  -0.004  -0.004  -0.001   0.002  -3.640   0.263
 -0.032  -0.005   0.001   0.015   0.002  -0.001   0.263  -3.866
  0.003  -0.016  -0.019  -0.001   0.006   0.014   0.002   0.009
  0.001  -0.023  -0.013  -0.001   0.017   0.003  -0.003   0.004
  0.005   0.009   0.006  -0.002  -0.006  -0.004  -0.009   0.007
  0.004   0.001  -0.004  -0.004  -0.001   0.002  -4.045   0.266
 -0.031  -0.005   0.001   0.016   0.002  -0.001   0.266  -4.274
  0.002  -0.016  -0.019  -0.001   0.006   0.015   0.002   0.009
  0.001  -0.022  -0.013  -0.001   0.018   0.003  -0.003   0.004
  0.005   0.009   0.006  -0.002  -0.006  -0.004  -0.009   0.008
  0.002   0.007   0.000   0.001   0.002  -0.000   0.000  -0.001
  0.004   0.015   0.001   0.001   0.005  -0.000   0.001  -0.002
 total augmentation occupancy for first ion, spin component:           1
  1.986  -0.000  -0.000  -0.053   0.000  -0.000  -0.007   0.011  -0.000  -0.001  -0.002   0.007  -0.009   0.000   0.001   0.001
 -0.000   1.986  -0.000   0.000  -0.052   0.001  -0.001   0.001   0.002   0.017  -0.006   0.001  -0.001  -0.001  -0.015   0.005
 -0.000  -0.000   1.986  -0.000   0.001  -0.051   0.001  -0.001   0.014  -0.001  -0.001  -0.000   0.001  -0.013   0.002   0.001
 -0.053   0.000  -0.000   0.158   0.002  -0.001  -0.099   0.204  -0.002  -0.017  -0.018   0.098  -0.197   0.002   0.017   0.018
  0.000  -0.052   0.001   0.002   0.166   0.039  -0.015   0.014  -0.040   0.256  -0.135   0.015  -0.014   0.035  -0.264   0.137
 -0.000   0.001  -0.051  -0.001   0.039   0.200   0.002  -0.015   0.206  -0.057  -0.004  -0.002   0.015  -0.218   0.054   0.008
 -0.007  -0.001   0.001  -0.099  -0.015   0.002   8.145  -2.003  -0.004   0.081   0.073  -5.765   1.936   0.003  -0.080  -0.072
  0.011   0.001  -0.001   0.204   0.014  -0.015  -2.003   9.787  -0.003  -0.047  -0.057   1.937  -7.356   0.004   0.045   0.057
 -0.000   0.002   0.014  -0.002  -0.040   0.206  -0.004  -0.003   6.725   0.065   0.022   0.003   0.004  -4.402  -0.058  -0.010
 -0.001   0.017  -0.001  -0.017   0.256  -0.057   0.081  -0.047   0.065  12.515   4.717  -0.080   0.045  -0.055 -10.109  -4.634
 -0.002  -0.006  -0.001  -0.018  -0.135  -0.004   0.073  -0.057   0.022   4.717  10.817  -0.072   0.057  -0.007  -4.638  -8.410
  0.007   0.001  -0.000   0.098   0.015  -0.002  -5.765   1.937   0.003  -0.080  -0.072   4.625  -1.913  -0.003   0.079   0.072
 -0.009  -0.001   0.001  -0.197  -0.014   0.015   1.936  -7.356   0.004   0.045   0.057  -1.913   6.203  -0.006  -0.043  -0.059
  0.000  -0.001  -0.013   0.002   0.035  -0.218   0.003   0.004  -4.402  -0.055  -0.007  -0.003  -0.006   3.288   0.064  -0.005
  0.001  -0.015   0.002   0.017  -0.264   0.054  -0.080   0.045  -0.058 -10.109  -4.638   0.079  -0.043   0.064   8.985   4.630
  0.001   0.005   0.001   0.018   0.137   0.008  -0.072   0.057  -0.010  -4.634  -8.410   0.072  -0.059  -0.005   4.630   7.274
 -0.002  -0.006   0.000  -0.005  -0.018   0.001   0.008  -0.029   0.081  -0.677  -0.443  -0.009   0.031  -0.087   0.704   0.449
  0.001   0.003  -0.000   0.000   0.000   0.000   0.000  -0.001   0.006  -0.016  -0.001  -0.000  -0.000  -0.002  -0.003  -0.006
 total augmentation occupancy for first ion, spin component:           2
 -0.004  -0.000   0.000  -0.013  -0.000   0.000   0.000  -0.003   0.000   0.000   0.000  -0.000   0.003  -0.000  -0.000  -0.000
 -0.000  -0.004  -0.000  -0.000  -0.013  -0.001   0.000  -0.001  -0.002  -0.004   0.001  -0.000   0.000   0.002   0.004  -0.001
  0.000  -0.000  -0.004   0.000  -0.001  -0.014  -0.000   0.000  -0.003  -0.002   0.002   0.000  -0.000   0.004   0.001  -0.002
 -0.013  -0.000   0.000   0.017   0.000  -0.000  -0.046   0.090  -0.001  -0.010  -0.011   0.036  -0.066   0.001   0.008   0.008
 -0.000  -0.013  -0.001   0.000   0.018   0.001  -0.008   0.008  -0.009   0.145  -0.055   0.005  -0.006   0.008  -0.100   0.034
  0.000  -0.001  -0.014  -0.000   0.001   0.018   0.003  -0.008   0.115  -0.023  -0.016  -0.002   0.006  -0.075   0.019   0.009
  0.000   0.000  -0.000  -0.046  -0.008   0.003   7.451  -1.526  -0.005   0.060   0.053  -4.779   1.327   0.004  -0.054  -0.048
 -0.003  -0.001   0.000   0.090   0.008  -0.008  -1.526   8.610  -0.005  -0.041  -0.044   1.327  -5.785   0.005   0.037   0.040
  0.000  -0.002  -0.003  -0.001  -0.009   0.115  -0.005  -0.005   6.297   0.152   0.030   0.004   0.005  -3.776  -0.141  -0.028
  0.000  -0.004  -0.002  -0.010   0.145  -0.023   0.060  -0.041   0.152  10.232   3.340  -0.054   0.037  -0.143  -7.225  -2.932
  0.000   0.001   0.002  -0.011  -0.055  -0.016   0.053  -0.044   0.030   3.340   9.202  -0.048   0.040  -0.029  -2.930  -6.324
 -0.000  -0.000   0.000   0.036   0.005  -0.002  -4.779   1.327   0.004  -0.054  -0.048   3.144  -1.103  -0.003   0.046   0.041
  0.003   0.000  -0.000  -0.066  -0.006   0.006   1.327  -5.785   0.005   0.037   0.040  -1.103   3.973  -0.004  -0.032  -0.034
 -0.000   0.002   0.004   0.001   0.008  -0.075   0.004   0.005  -3.776  -0.143  -0.029  -0.003  -0.004   2.311   0.117   0.029
 -0.000   0.004   0.001   0.008  -0.100   0.019  -0.054   0.037  -0.141  -7.225  -2.930   0.046  -0.032   0.117   5.229   2.473
 -0.000  -0.001  -0.002   0.008   0.034   0.009  -0.048   0.040  -0.028  -2.932  -6.324   0.041  -0.034   0.029   2.473   4.464
  0.000   0.001  -0.000   0.000  -0.002   0.001   0.004  -0.009   0.020  -0.225  -0.169  -0.002   0.006  -0.014   0.165   0.129
 -0.000  -0.000   0.000  -0.000  -0.001   0.000   0.001  -0.002   0.009  -0.048  -0.022  -0.000   0.001  -0.006   0.036   0.019


------------------------ aborting loop because EDIFF is reached ----------------------------------------





 total charge

# of ion       s       p       d       tot
------------------------------------------
    1        0.270   6.321   5.544  12.136
    2        0.272   6.324   5.550  12.145
    3        0.271   6.323   5.547  12.140
    4        0.272   6.326   5.547  12.144
    5        0.272   6.326   5.548  12.145
    6        0.272   6.327   5.550  12.149
    7        0.271   6.323   5.548  12.141
    8        0.270   6.322   5.544  12.137
    9        0.276   6.333   5.578  12.187
   10        0.272   6.324   5.550  12.145
   11        0.271   6.323   5.547  12.140
   12        0.202   6.207   5.930  12.339
   13        0.274   6.329   5.553  12.156
   14        0.272   6.327   5.550  12.148
   15        0.271   6.323   5.548  12.141
   16        0.280   6.340   5.560  12.180
   17        0.270   6.321   5.544  12.135
   18        0.271   6.324   5.545  12.140
   19        0.271   6.323   5.545  12.139
   20        0.272   6.326   5.547  12.144
   21        0.272   6.326   5.548  12.145
   22        0.271   6.323   5.545  12.139
   23        0.271   6.323   5.545  12.139
   24        0.270   6.322   5.544  12.136
   25        1.567   3.603   0.000   5.171
   26        1.567   3.599   0.000   5.166
   27        1.566   3.602   0.000   5.168
   28        1.568   3.602   0.000   5.170
   29        1.565   3.598   0.000   5.163
   30        1.564   3.599   0.000   5.162
   31        1.565   3.598   0.000   5.163
   32        1.566   3.597   0.000   5.163
   33        1.564   3.570   0.000   5.135
   34        1.563   3.572   0.000   5.135
   35        1.565   3.567   0.000   5.132
   36        1.564   3.568   0.000   5.132
   37        1.567   3.574   0.000   5.141
   38        1.564   3.570   0.000   5.134
   39        1.564   3.570   0.000   5.134
   40        1.564   3.569   0.000   5.133
   41        1.568   3.604   0.000   5.171
   42        1.567   3.606   0.000   5.173
   43        1.568   3.605   0.000   5.173
   44        1.568   3.603   0.000   5.171
   45        1.565   3.596   0.000   5.161
   46        1.565   3.598   0.000   5.163
   47        1.566   3.596   0.000   5.162
   48        1.565   3.599   0.000   5.164
   49        1.564   3.568   0.000   5.133
   50        1.564   3.568   0.000   5.132
   51        1.564   3.569   0.000   5.133
   52        1.564   3.568   0.000   5.132
   53        1.565   3.567   0.000   5.132
   54        1.564   3.567   0.000   5.132
   55        1.564   3.569   0.000   5.133
   56        1.564   3.571   0.000   5.135
   57        1.566   3.600   0.000   5.166
   58        1.567   3.599   0.000   5.166
   59        1.566   3.602   0.000   5.168
   60        1.564   3.637   0.000   5.201
   61        1.561   3.641   0.000   5.202
   62        1.564   3.599   0.000   5.162
   63        1.565   3.598   0.000   5.163
   64        1.568   3.606   0.000   5.174
   65        1.564   3.566   0.000   5.130
   66        1.564   3.569   0.000   5.133
   67        1.567   3.574   0.000   5.141
   68        1.565   3.578   0.000   5.143
   69        1.565   3.567   0.000   5.132
   70        1.565   3.578   0.000   5.143
   71        1.564   3.567   0.000   5.130
   72        1.563   3.572   0.000   5.135
   73        1.570   3.602   0.000   5.172
   74        1.567   3.606   0.000   5.173
   75        1.568   3.605   0.000   5.173
   76        1.572   3.618   0.000   5.189
   77        1.563   3.595   0.000   5.157
   78        1.565   3.598   0.000   5.163
   79        1.566   3.596   0.000   5.162
   80        1.568   3.609   0.000   5.177
   81        1.565   3.575   0.000   5.140
   82        1.564   3.571   0.000   5.135
   83        1.565   3.567   0.000   5.132
   84        1.564   3.571   0.000   5.136
   85        1.564   3.569   0.000   5.133
   86        1.564   3.571   0.000   5.136
   87        1.565   3.575   0.000   5.140
   88        1.563   3.568   0.000   5.131
   89        1.567   3.603   0.000   5.170
   90        1.568   3.603   0.000   5.170
   91        1.567   3.604   0.000   5.171
   92        1.568   3.602   0.000   5.170
   93        1.565   3.598   0.000   5.163
   94        1.565   3.597   0.000   5.162
   95        1.565   3.599   0.000   5.164
   96        1.566   3.597   0.000   5.163
   97        1.564   3.570   0.000   5.134
   98        1.564   3.568   0.000   5.133
   99        1.564   3.570   0.000   5.134
  100        1.564   3.569   0.000   5.133
  101        1.564   3.569   0.000   5.134
  102        1.564   3.568   0.000   5.133
  103        1.564   3.570   0.000   5.135
  104        1.564   3.568   0.000   5.133
  105        1.568   3.604   0.000   5.171
  106        1.568   3.603   0.000   5.170
  107        1.568   3.604   0.000   5.171
  108        1.568   3.603   0.000   5.171
  109        1.565   3.596   0.000   5.161
  110        1.565   3.597   0.000   5.162
  111        1.565   3.598   0.000   5.164
  112        1.565   3.599   0.000   5.164
  113        1.564   3.568   0.000   5.133
  114        1.564   3.570   0.000   5.134
  115        1.564   3.568   0.000   5.132
  116        1.564   3.567   0.000   5.132
  117        1.564   3.568   0.000   5.132
  118        1.564   3.568   0.000   5.132
  119        1.564   3.568   0.000   5.132
  120        1.564   3.570   0.000   5.134
  121        0.912   1.501   0.000   2.413
  122        0.913   1.501   0.000   2.413
  123        0.913   1.503   0.000   2.416
  124        0.913   1.501   0.000   2.413
  125        0.913   1.501   0.000   2.414
  126        0.912   1.498   0.000   2.410
  127        0.913   1.504   0.000   2.417
  128        0.912   1.500   0.000   2.412
  129        0.914   1.508   0.000   2.422
  130        0.913   1.501   0.000   2.413
  131        0.913   1.503   0.000   2.415
  132        0.914   1.517   0.000   2.431
  133        0.915   1.511   0.000   2.426
  134        0.912   1.498   0.000   2.410
  135        0.913   1.504   0.000   2.417
  136        0.913   1.503   0.000   2.416
  137        0.913   1.501   0.000   2.413
  138        0.913   1.501   0.000   2.414
  139        0.912   1.501   0.000   2.413
  140        0.913   1.501   0.000   2.413
  141        0.913   1.501   0.000   2.414
  142        0.913   1.501   0.000   2.414
  143        0.912   1.500   0.000   2.413
  144        0.912   1.499   0.000   2.412
  145        0.065   6.010   0.000   6.076
--------------------------------------------------
tot        178.696 538.024 133.555 850.274



 magnetization (x)

# of ion       s       p       d       tot
------------------------------------------
    1        0.024   0.031   4.301   4.356
    2        0.024   0.032   4.295   4.351
    3        0.023   0.031   4.301   4.355
    4        0.023   0.031   4.304   4.358
    5        0.023   0.031   4.303   4.357
    6        0.024   0.031   4.301   4.356
    7        0.023   0.032   4.299   4.354
    8        0.023   0.031   4.303   4.357
    9        0.022   0.033   4.269   4.325
   10        0.024   0.032   4.295   4.351
   11        0.023   0.031   4.301   4.355
   12        0.025   0.022   3.736   3.783
   13        0.024   0.032   4.298   4.353
   14        0.024   0.031   4.301   4.356
   15        0.023   0.032   4.299   4.354
   16        0.025   0.031   4.299   4.356
   17        0.024   0.031   4.301   4.356
   18        0.023   0.031   4.303   4.358
   19        0.023   0.031   4.303   4.358
   20        0.023   0.031   4.304   4.358
   21        0.023   0.031   4.303   4.357
   22        0.023   0.031   4.303   4.357
   23        0.023   0.031   4.303   4.358
   24        0.023   0.031   4.303   4.357
   25        0.007   0.097   0.000   0.104
   26        0.007   0.092   0.000   0.099
   27        0.007   0.098   0.000   0.106
   28        0.007   0.095   0.000   0.102
   29        0.008   0.102   0.000   0.109
   30        0.008   0.111   0.000   0.118
   31        0.007   0.089   0.000   0.096
   32        0.008   0.096   0.000   0.104
   33        0.011   0.128   0.000   0.139
   34        0.010   0.109   0.000   0.118
   35        0.011   0.131   0.000   0.142
   36        0.011   0.124   0.000   0.135
   37        0.009   0.108   0.000   0.117
   38        0.011   0.125   0.000   0.136
   39        0.011   0.130   0.000   0.142
   40        0.011   0.123   0.000   0.134
   41        0.007   0.095   0.000   0.103
   42        0.007   0.092   0.000   0.100
   43        0.007   0.094   0.000   0.101
   44        0.007   0.097   0.000   0.104
   45        0.008   0.103   0.000   0.110
   46        0.008   0.104   0.000   0.112
   47        0.007   0.092   0.000   0.100
   48        0.008   0.098   0.000   0.105
   49        0.011   0.128   0.000   0.139
   50        0.011   0.129   0.000   0.140
   51        0.011   0.124   0.000   0.135
   52        0.011   0.122   0.000   0.133
   53        0.011   0.124   0.000   0.135
   54        0.011   0.127   0.000   0.138
   55        0.011   0.128   0.000   0.139
   56        0.012   0.130   0.000   0.141
   57        0.008   0.104   0.000   0.112
   58        0.007   0.092   0.000   0.099
   59        0.007   0.098   0.000   0.106
   60        0.003   0.027   0.000   0.031
   61        0.008   0.090   0.000   0.098
   62        0.008   0.111   0.000   0.118
   63        0.007   0.089   0.000   0.096
   64        0.003   0.044   0.000   0.048
   65        0.011   0.126   0.000   0.138
   66        0.011   0.123   0.000   0.134
   67        0.009   0.108   0.000   0.117
   68        0.009   0.093   0.000   0.103
   69        0.011   0.131   0.000   0.142
   70        0.009   0.093   0.000   0.103
   71        0.011   0.127   0.000   0.138
   72        0.010   0.109   0.000   0.118
   73        0.007   0.097   0.000   0.103
   74        0.007   0.092   0.000   0.100
   75        0.007   0.094   0.000   0.101
   76        0.007   0.095   0.000   0.103
   77        0.008   0.096   0.000   0.104
   78        0.008   0.104   0.000   0.112
   79        0.007   0.092   0.000   0.100
   80        0.007   0.095   0.000   0.102
   81        0.011   0.128   0.000   0.140
   82        0.012   0.130   0.000   0.141
   83        0.011   0.124   0.000   0.135
   84        0.011   0.126   0.000   0.137
   85        0.011   0.124   0.000   0.135
   86        0.011   0.126   0.000   0.137
   87        0.011   0.128   0.000   0.140
   88        0.011   0.129   0.000   0.140
   89        0.007   0.097   0.000   0.104
   90        0.007   0.096   0.000   0.103
   91        0.007   0.096   0.000   0.104
   92        0.007   0.095   0.000   0.102
   93        0.008   0.102   0.000   0.109
   94        0.008   0.100   0.000   0.108
   95        0.008   0.099   0.000   0.107
   96        0.008   0.096   0.000   0.104
   97        0.011   0.130   0.000   0.142
   98        0.011   0.128   0.000   0.139
   99        0.011   0.126   0.000   0.137
  100        0.011   0.125   0.000   0.136
  101        0.011   0.126   0.000   0.137
  102        0.011   0.124   0.000   0.135
  103        0.011   0.128   0.000   0.139
  104        0.011   0.127   0.000   0.139
  105        0.007   0.095   0.000   0.103
  106        0.007   0.096   0.000   0.104
  107        0.007   0.097   0.000   0.104
  108        0.007   0.097   0.000   0.104
  109        0.008   0.103   0.000   0.110
  110        0.008   0.101   0.000   0.109
  111        0.008   0.099   0.000   0.106
  112        0.008   0.098   0.000   0.105
  113        0.011   0.128   0.000   0.139
  114        0.011   0.128   0.000   0.139
  115        0.011   0.126   0.000   0.137
  116        0.011   0.127   0.000   0.138
  117        0.011   0.126   0.000   0.137
  118        0.011   0.123   0.000   0.133
  119        0.011   0.128   0.000   0.139
  120        0.011   0.128   0.000   0.139
  121        0.004   0.013   0.000   0.017
  122        0.004   0.012   0.000   0.016
  123        0.004   0.013   0.000   0.017
  124        0.004   0.013   0.000   0.017
  125        0.004   0.013   0.000   0.017
  126        0.004   0.012   0.000   0.016
  127        0.004   0.013   0.000   0.017
  128        0.004   0.013   0.000   0.016
  129        0.003   0.011   0.000   0.015
  130        0.004   0.012   0.000   0.016
  131        0.004   0.013   0.000   0.017
  132        0.005   0.014   0.000   0.018
  133        0.004   0.013   0.000   0.017
  134        0.004   0.012   0.000   0.016
  135        0.004   0.013   0.000   0.017
  136        0.004   0.012   0.000   0.016
  137        0.004   0.013   0.000   0.017
  138        0.004   0.013   0.000   0.016
  139        0.004   0.013   0.000   0.017
  140        0.004   0.013   0.000   0.017
  141        0.004   0.013   0.000   0.017
  142        0.004   0.013   0.000   0.017
  143        0.004   0.013   0.000   0.017
  144        0.004   0.013   0.000   0.016
  145        0.000   0.000   0.000   0.000
--------------------------------------------------
tot          1.527  11.533 102.629 115.689

    FORLOC:  cpu time      0.0156: real time      0.0156
    FORNL :  cpu time      2.1341: real time      2.1465
    STRESS:  cpu time      6.2267: real time      6.2660
    FORCOR:  cpu time      0.1090: real time      0.1095
    OFIELD:  cpu time      0.0003: real time      0.0003

  FORCE on cell =-STRESS in cart. coord.  units (eV):
  Direction    XX          YY          ZZ          XY          YZ          ZX
  --------------------------------------------------------------------------------------
  Alpha Z  2952.23722  2952.23722  2952.23722
  Ewald  -22834.27384-18269.80709-21378.16510     1.38505    -0.48511  -222.71854
  Hartree  9998.67687 15461.88634 12018.48866     0.95622    -0.12515  -127.40997
  E(xc)   -5544.14037 -5547.66798 -5547.34066     0.00221    -0.00097    -0.20353
  Local   -4077.64844-14305.41321 -7539.80966    -2.31382     0.58011   333.39743
  n-local -1706.21207 -1836.77287 -1749.24569     0.00988    -0.02740    -2.29551
  augment  3988.47746  4011.54957  3981.02397    -0.00819     0.00391     7.99977
  Kinetic 17233.70781 17540.95219 17273.83839    -0.04632     0.02794     7.81308
  Fock        0.00000     0.00000     0.00000     0.00000     0.00000     0.00000
  -------------------------------------------------------------------------------------
  Total      10.82463     6.96417    11.02711    -0.01497    -0.02666    -3.41726
  in kB      10.06336     6.47440    10.25161    -0.01392    -0.02478    -3.17694
  external pressure =        8.93 kB  Pullay stress =        0.00 kB


 VOLUME and BASIS-vectors are now :
 -----------------------------------------------------------------------------
  energy-cutoff  :      520.00
  volume of cell :     1723.38
      direct lattice vectors                 reciprocal lattice vectors
     9.962489075 -0.000069663 -0.000154526     0.100376522  0.000000553 -0.000000819
    -0.000097698 17.717656860 -0.000226836     0.000000395  0.056440872 -0.000000631
     0.000079674  0.000109170  9.763519320     0.000001589  0.000001311  0.102422084

  length of vectors
     9.962489076 17.717656862  9.763519321     0.100376522  0.056440872  0.102422084


 FORCES acting on ions:
    Electron-Ion                     Ewald-Force                    Non-Local-Force
 -----------------------------------------------------------------------------------------------
   -.476E+02 0.926E+01 0.344E+02   0.476E+02 -.968E+01 -.361E+02   -.448E-01 0.420E+00 0.169E+01
   0.774E+02 0.367E+02 0.359E+02   -.785E+02 -.376E+02 -.377E+02   0.107E+01 0.889E+00 0.182E+01
   0.189E+02 0.253E+02 -.384E+02   -.192E+02 -.244E+02 0.406E+02   0.222E+00 -.888E+00 -.228E+01
   -.381E+02 0.129E+02 -.213E+02   0.384E+02 -.122E+02 0.238E+02   -.352E+00 -.673E+00 -.255E+01
   -.459E+02 0.140E+02 0.356E+02   0.460E+02 -.142E+02 -.373E+02   -.126E+00 0.152E+00 0.170E+01
   0.606E+02 0.216E+02 0.460E+02   -.606E+02 -.223E+02 -.470E+02   -.486E-01 0.703E+00 0.943E+00
   0.500E+02 0.384E+02 -.365E+02   -.486E+02 -.370E+02 0.375E+02   -.142E+01 -.136E+01 -.101E+01
   -.460E+02 0.958E+01 -.336E+02   0.458E+02 -.954E+01 0.355E+02   0.150E+00 -.436E-01 -.183E+01
   0.388E+02 0.204E+00 -.363E+02   -.404E+02 -.200E+00 0.363E+02   0.161E+01 -.432E-02 0.614E-01
   0.770E+02 -.366E+02 0.357E+02   -.781E+02 0.375E+02 -.375E+02   0.108E+01 -.881E+00 0.183E+01
   0.189E+02 -.250E+02 -.382E+02   -.191E+02 0.241E+02 0.404E+02   0.222E+00 0.890E+00 -.229E+01
   -.110E+03 0.499E+00 -.118E+02   0.113E+03 -.493E+00 0.141E+02   -.223E+01 -.686E-02 -.237E+01
   0.149E+02 0.481E+00 0.898E+02   -.150E+02 -.478E+00 -.914E+02   0.107E+00 -.357E-02 0.166E+01
   0.603E+02 -.215E+02 0.462E+02   -.602E+02 0.222E+02 -.471E+02   -.476E-01 -.694E+00 0.937E+00
   0.500E+02 -.380E+02 -.367E+02   -.486E+02 0.366E+02 0.377E+02   -.142E+01 0.136E+01 -.100E+01
   -.908E+02 0.205E+00 -.484E+02   0.896E+02 -.206E+00 0.498E+02   0.126E+01 0.240E-04 -.140E+01
   -.477E+02 -.999E+01 0.346E+02   0.478E+02 0.104E+02 -.362E+02   -.470E-01 -.413E+00 0.168E+01
   0.437E+02 0.267E+00 0.273E+02   -.438E+02 -.262E+00 -.292E+02   0.152E+00 -.477E-02 0.200E+01
   0.439E+02 0.436E-01 -.324E+02   -.440E+02 -.412E-01 0.342E+02   0.296E-01 -.227E-02 -.187E+01
   -.382E+02 -.136E+02 -.215E+02   0.385E+02 0.129E+02 0.241E+02   -.352E+00 0.672E+00 -.254E+01
   -.460E+02 -.148E+02 0.353E+02   0.461E+02 0.150E+02 -.370E+02   -.127E+00 -.142E+00 0.172E+01
   0.465E+02 0.117E+00 0.353E+02   -.466E+02 -.115E+00 -.372E+02   0.596E-01 -.180E-02 0.189E+01
   0.459E+02 0.218E+00 -.332E+02   -.459E+02 -.209E+00 0.351E+02   0.404E-01 -.881E-02 -.194E+01
   -.462E+02 -.102E+02 -.336E+02   0.460E+02 0.102E+02 0.354E+02   0.156E+00 0.429E-01 -.183E+01
   0.192E+03 0.549E+01 -.572E+02   -.199E+03 -.521E+01 0.902E+02   0.640E+01 -.283E+00 -.329E+02
   -.190E+03 0.264E+02 -.529E+02   0.197E+03 -.264E+02 0.856E+02   -.684E+01 -.765E-01 -.328E+02
   -.188E+03 -.645E+01 0.528E+02   0.193E+03 0.781E+01 -.853E+02   -.554E+01 -.136E+01 0.325E+02
   0.193E+03 0.282E+01 0.595E+02   -.200E+03 -.301E+01 -.928E+02   0.670E+01 0.192E+00 0.334E+02
   -.581E+02 0.523E+01 -.169E+03   0.299E+02 -.523E+01 0.186E+03   0.282E+02 -.103E-02 -.170E+02
   0.693E+02 -.233E+01 -.160E+03   -.420E+02 0.286E+01 0.176E+03   -.273E+02 -.537E+00 -.158E+02
   0.359E+02 0.279E+02 0.154E+03   -.687E+01 -.282E+02 -.170E+03   -.291E+02 0.294E+00 0.164E+02
   -.488E+02 0.347E+01 0.170E+03   0.198E+02 -.381E+01 -.187E+03   0.290E+02 0.341E+00 0.172E+02
   0.101E+03 0.635E+02 0.664E+02   -.918E+02 -.864E+02 -.832E+02   -.974E+01 0.229E+02 0.168E+02
   -.515E+02 0.992E+00 0.380E+02   0.396E+02 0.203E+02 -.530E+02   0.119E+02 -.213E+02 0.150E+02
   -.103E+03 0.555E+02 -.805E+02   0.939E+02 -.779E+02 0.984E+02   0.879E+01 0.224E+02 -.179E+02
   0.943E+02 -.551E+02 -.703E+02   -.844E+02 0.782E+02 0.874E+02   -.992E+01 -.232E+02 -.171E+02
   -.111E+03 -.961E+02 -.304E+02   0.102E+03 0.124E+03 0.462E+02   0.943E+01 -.280E+02 -.157E+02
   0.999E+02 0.617E+02 -.683E+02   -.903E+02 -.847E+02 0.852E+02   -.964E+01 0.229E+02 -.169E+02
   0.106E+03 -.519E+02 0.692E+02   -.965E+02 0.743E+02 -.863E+02   -.940E+01 -.223E+02 0.171E+02
   -.969E+02 0.784E+02 0.560E+02   0.870E+02 -.102E+03 -.723E+02   0.996E+01 0.232E+02 0.164E+02
   0.196E+03 0.619E+01 -.576E+02   -.202E+03 -.623E+01 0.908E+02   0.642E+01 0.442E-01 -.332E+02
   -.192E+03 0.142E+02 -.576E+02   0.198E+03 -.140E+02 0.908E+02   -.600E+01 -.251E+00 -.332E+02
   -.192E+03 0.106E+02 0.558E+02   0.199E+03 -.109E+02 -.892E+02   -.697E+01 0.312E+00 0.334E+02
   0.192E+03 0.544E+01 0.578E+02   -.198E+03 -.556E+01 -.908E+02   0.676E+01 0.121E+00 0.330E+02
   -.573E+02 0.337E+01 -.166E+03   0.294E+02 -.291E+01 0.183E+03   0.280E+02 -.455E+00 -.170E+02
   0.639E+02 0.493E+01 -.174E+03   -.362E+02 -.500E+01 0.191E+03   -.278E+02 0.669E-01 -.175E+02
   0.408E+02 0.170E+02 0.175E+03   -.116E+02 -.178E+02 -.193E+03   -.292E+02 0.786E+00 0.178E+02
   -.532E+02 0.572E+01 0.165E+03   0.245E+02 -.574E+01 -.182E+03   0.287E+02 0.124E-01 0.169E+02
   0.101E+03 0.639E+02 0.698E+02   -.915E+02 -.868E+02 -.869E+02   -.965E+01 0.229E+02 0.171E+02
   -.914E+02 -.477E+02 0.687E+02   0.815E+02 0.701E+02 -.851E+02   0.989E+01 -.224E+02 0.164E+02
   -.100E+03 0.676E+02 -.708E+02   0.903E+02 -.907E+02 0.879E+02   0.998E+01 0.231E+02 -.170E+02
   0.985E+02 -.577E+02 -.625E+02   -.886E+02 0.811E+02 0.790E+02   -.989E+01 -.234E+02 -.166E+02
   -.102E+03 -.570E+02 -.749E+02   0.922E+02 0.808E+02 0.917E+02   0.100E+02 -.238E+02 -.169E+02
   0.101E+03 0.626E+02 -.690E+02   -.916E+02 -.855E+02 0.860E+02   -.941E+01 0.229E+02 -.171E+02
   0.103E+03 -.518E+02 0.735E+02   -.930E+02 0.745E+02 -.906E+02   -.947E+01 -.227E+02 0.172E+02
   -.101E+03 0.730E+02 0.618E+02   0.913E+02 -.961E+02 -.778E+02   0.966E+01 0.231E+02 0.159E+02
   0.229E+03 0.159E+00 -.410E+02   -.236E+03 -.158E+00 0.721E+02   0.671E+01 -.112E-02 -.311E+02
   -.190E+03 -.263E+02 -.530E+02   0.197E+03 0.263E+02 0.858E+02   -.685E+01 0.614E-01 -.328E+02
   -.188E+03 0.648E+01 0.528E+02   0.193E+03 -.780E+01 -.853E+02   -.552E+01 0.132E+01 0.325E+02
   0.759E+02 0.579E-01 0.427E+02   -.751E+02 -.408E-01 -.753E+02   -.757E+00 -.168E-01 0.326E+02
   -.726E+02 -.401E-01 -.499E+02   0.473E+02 0.872E-01 0.583E+02   0.253E+02 -.479E-01 -.839E+01
   0.693E+02 0.247E+01 -.160E+03   -.419E+02 -.304E+01 0.176E+03   -.273E+02 0.562E+00 -.158E+02
   0.361E+02 -.278E+02 0.154E+03   -.701E+01 0.281E+02 -.171E+03   -.291E+02 -.282E+00 0.164E+02
   -.122E+02 0.199E+00 0.164E+03   -.200E+02 -.172E+00 -.182E+03   0.321E+02 -.280E-01 0.183E+02
   0.118E+03 0.709E+02 0.618E+02   -.107E+03 -.928E+02 -.771E+02   -.110E+02 0.219E+02 0.153E+02
   -.971E+02 -.785E+02 0.560E+02   0.872E+02 0.102E+03 -.723E+02   0.995E+01 -.231E+02 0.164E+02
   -.111E+03 0.964E+02 -.305E+02   0.102E+03 -.124E+03 0.463E+02   0.943E+01 0.280E+02 -.157E+02
   0.481E+02 -.426E+02 -.893E+02   -.374E+02 0.642E+02 0.110E+03   -.107E+02 -.216E+02 -.207E+02
   -.103E+03 -.557E+02 -.807E+02   0.940E+02 0.781E+02 0.986E+02   0.877E+01 -.224E+02 -.180E+02
   0.480E+02 0.430E+02 -.894E+02   -.374E+02 -.646E+02 0.110E+03   -.107E+02 0.216E+02 -.207E+02
   0.118E+03 -.706E+02 0.619E+02   -.107E+03 0.925E+02 -.772E+02   -.110E+02 -.219E+02 0.153E+02
   -.517E+02 -.783E+00 0.382E+02   0.398E+02 -.205E+02 -.533E+02   0.119E+02 0.213E+02 0.151E+02
   0.215E+03 0.204E+00 -.710E+02   -.223E+03 -.212E+00 0.105E+03   0.841E+01 0.695E-02 -.342E+02
   -.192E+03 -.141E+02 -.577E+02   0.198E+03 0.139E+02 0.909E+02   -.599E+01 0.218E+00 -.332E+02
   -.192E+03 -.105E+02 0.558E+02   0.199E+03 0.108E+02 -.892E+02   -.697E+01 -.356E+00 0.334E+02
   0.198E+03 0.167E+00 0.534E+02   -.207E+03 -.186E+00 -.874E+02   0.909E+01 0.199E-01 0.340E+02
   -.652E+02 0.198E+00 -.191E+03   0.382E+02 -.225E+00 0.207E+03   0.270E+02 0.286E-01 -.162E+02
   0.638E+02 -.480E+01 -.173E+03   -.361E+02 0.485E+01 0.191E+03   -.278E+02 -.560E-01 -.174E+02
   0.407E+02 -.168E+02 0.175E+03   -.115E+02 0.176E+02 -.193E+03   -.292E+02 -.763E+00 0.178E+02
   -.573E+02 0.119E+00 0.179E+03   0.291E+02 -.104E+00 -.199E+03   0.282E+02 -.158E-01 0.201E+02
   0.113E+03 0.911E+02 0.488E+02   -.104E+03 -.116E+03 -.635E+02   -.931E+01 0.248E+02 0.146E+02
   -.101E+03 -.730E+02 0.622E+02   0.915E+02 0.960E+02 -.782E+02   0.963E+01 -.231E+02 0.159E+02
   -.102E+03 0.573E+02 -.748E+02   0.921E+02 -.811E+02 0.917E+02   0.100E+02 0.238E+02 -.169E+02
   0.928E+02 -.784E+02 -.654E+02   -.831E+02 0.102E+03 0.820E+02   -.964E+01 -.238E+02 -.166E+02
   -.100E+03 -.677E+02 -.708E+02   0.905E+02 0.908E+02 0.879E+02   0.995E+01 -.231E+02 -.171E+02
   0.927E+02 0.785E+02 -.655E+02   -.830E+02 -.102E+03 0.821E+02   -.966E+01 0.238E+02 -.167E+02
   0.113E+03 -.909E+02 0.487E+02   -.104E+03 0.116E+03 -.633E+02   -.930E+01 -.248E+02 0.146E+02
   -.914E+02 0.479E+02 0.686E+02   0.815E+02 -.703E+02 -.851E+02   0.989E+01 0.224E+02 0.164E+02
   0.192E+03 -.581E+01 -.573E+02   -.198E+03 0.548E+01 0.902E+02   0.639E+01 0.332E+00 -.329E+02
   -.194E+03 0.195E-01 -.596E+02   0.201E+03 -.121E-01 0.927E+02   -.654E+01 -.790E-02 -.331E+02
   -.193E+03 -.563E-01 0.578E+02   0.199E+03 0.763E-01 -.909E+02   -.649E+01 -.204E-01 0.331E+02
   0.193E+03 -.301E+01 0.593E+02   -.200E+03 0.319E+01 -.927E+02   0.668E+01 -.179E+00 0.334E+02
   -.578E+02 -.560E+01 -.169E+03   0.296E+02 0.558E+01 0.186E+03   0.282E+02 0.159E-01 -.170E+02
   0.551E+02 0.735E-01 -.167E+03   -.268E+02 -.513E-01 0.184E+03   -.284E+02 -.222E-01 -.168E+02
   0.540E+02 0.107E+00 0.167E+03   -.255E+02 -.118E+00 -.185E+03   -.285E+02 0.105E-01 0.171E+02
   -.488E+02 -.394E+01 0.170E+03   0.199E+02 0.429E+01 -.187E+03   0.290E+02 -.353E+00 0.172E+02
   0.106E+03 0.519E+02 0.693E+02   -.968E+02 -.742E+02 -.864E+02   -.936E+01 0.223E+02 0.171E+02
   -.101E+03 -.581E+02 0.672E+02   0.912E+02 0.809E+02 -.841E+02   0.967E+01 -.229E+02 0.170E+02
   -.100E+03 0.571E+02 -.700E+02   0.908E+02 -.800E+02 0.871E+02   0.962E+01 0.229E+02 -.171E+02
   0.999E+02 -.620E+02 -.683E+02   -.903E+02 0.849E+02 0.852E+02   -.963E+01 -.229E+02 -.169E+02
   -.100E+03 -.573E+02 -.701E+02   0.908E+02 0.802E+02 0.872E+02   0.963E+01 -.229E+02 -.172E+02
   0.945E+02 0.551E+02 -.703E+02   -.846E+02 -.782E+02 0.875E+02   -.990E+01 0.232E+02 -.171E+02
   0.101E+03 -.637E+02 0.664E+02   -.917E+02 0.866E+02 -.833E+02   -.974E+01 -.229E+02 0.169E+02
   -.101E+03 0.580E+02 0.670E+02   0.909E+02 -.808E+02 -.839E+02   0.969E+01 0.229E+02 0.169E+02
   0.196E+03 -.646E+01 -.576E+02   -.202E+03 0.650E+01 0.907E+02   0.642E+01 -.372E-01 -.332E+02
   -.194E+03 -.135E-01 -.572E+02   0.201E+03 0.313E-01 0.904E+02   -.660E+01 -.182E-01 -.332E+02
   -.193E+03 0.787E-02 0.572E+02   0.200E+03 -.272E-02 -.902E+02   -.663E+01 -.540E-02 0.331E+02
   0.192E+03 -.562E+01 0.578E+02   -.198E+03 0.571E+01 -.908E+02   0.675E+01 -.938E-01 0.330E+02
   -.572E+02 -.378E+01 -.166E+03   0.292E+02 0.336E+01 0.183E+03   0.280E+02 0.424E+00 -.170E+02
   0.564E+02 0.169E-01 -.166E+03   -.281E+02 -.983E-02 0.183E+03   -.283E+02 -.620E-02 -.169E+02
   0.526E+02 0.728E-01 0.168E+03   -.240E+02 -.889E-01 -.185E+03   -.286E+02 0.163E-01 0.172E+02
   -.530E+02 -.607E+01 0.165E+03   0.244E+02 0.607E+01 -.182E+03   0.287E+02 0.255E-02 0.169E+02
   0.102E+03 0.517E+02 0.734E+02   -.930E+02 -.744E+02 -.906E+02   -.946E+01 0.227E+02 0.172E+02
   -.102E+03 -.564E+02 0.709E+02   0.922E+02 0.791E+02 -.880E+02   0.959E+01 -.227E+02 0.171E+02
   -.100E+03 0.599E+02 -.667E+02   0.903E+02 -.831E+02 0.837E+02   0.969E+01 0.231E+02 -.169E+02
   0.101E+03 -.628E+02 -.688E+02   -.916E+02 0.857E+02 0.859E+02   -.942E+01 -.229E+02 -.171E+02
   -.999E+02 -.601E+02 -.669E+02   0.902E+02 0.832E+02 0.838E+02   0.970E+01 -.231E+02 -.169E+02
   0.988E+02 0.576E+02 -.627E+02   -.889E+02 -.809E+02 0.793E+02   -.986E+01 0.234E+02 -.166E+02
   0.101E+03 -.639E+02 0.700E+02   -.914E+02 0.868E+02 -.870E+02   -.965E+01 -.229E+02 0.171E+02
   -.102E+03 0.562E+02 0.709E+02   0.921E+02 -.789E+02 -.880E+02   0.961E+01 0.227E+02 0.171E+02
   0.680E+02 0.351E+01 0.352E+01   -.692E+02 -.368E+01 -.111E+01   0.123E+01 0.180E+00 -.252E+01
   -.627E+02 0.251E+02 -.508E+01   0.640E+02 -.252E+02 0.768E+01   -.139E+01 0.156E+00 -.273E+01
   -.672E+02 0.513E+00 0.638E+01   0.668E+02 0.516E+00 -.798E+01   0.430E+00 -.108E+01 0.167E+01
   0.634E+02 0.380E+01 -.465E+01   -.641E+02 -.369E+01 0.226E+01   0.706E+00 -.118E+00 0.250E+01
   0.675E+02 0.526E+01 0.533E+01   -.685E+02 -.528E+01 -.280E+01   0.101E+01 0.261E-01 -.266E+01
   -.653E+02 0.120E+02 0.679E+01   0.669E+02 -.121E+02 -.456E+01   -.165E+01 0.169E+00 -.232E+01
   -.647E+02 0.601E+01 -.858E+01   0.651E+02 -.584E+01 0.596E+01   -.448E+00 -.179E+00 0.275E+01
   0.655E+02 0.272E+01 -.348E+01   -.661E+02 -.269E+01 0.877E+00   0.585E+00 -.380E-01 0.272E+01
   0.924E+02 0.189E+00 -.137E+01   -.961E+02 -.190E+00 0.253E+01   0.389E+01 0.519E-03 -.121E+01
   -.627E+02 -.249E+02 -.496E+01   0.640E+02 0.251E+02 0.757E+01   -.139E+01 -.163E+00 -.274E+01
   -.672E+02 -.448E+00 0.630E+01   0.668E+02 -.582E+00 -.790E+01   0.436E+00 0.108E+01 0.167E+01
   0.188E+02 0.980E-01 0.154E+02   -.179E+02 -.104E+00 -.176E+02   -.917E+00 0.684E-02 0.228E+01
   0.738E+02 0.113E+00 -.701E+01   -.753E+02 -.117E+00 0.926E+01   0.162E+01 0.305E-02 -.235E+01
   -.653E+02 -.119E+02 0.683E+01   0.669E+02 0.120E+02 -.460E+01   -.166E+01 -.175E+00 -.233E+01
   -.647E+02 -.582E+01 -.861E+01   0.651E+02 0.565E+01 0.599E+01   -.452E+00 0.176E+00 0.275E+01
   0.505E+02 0.545E-01 -.233E+02   -.504E+02 -.601E-01 0.199E+02   -.772E-01 0.607E-02 0.361E+01
   0.679E+02 -.384E+01 0.343E+01   -.691E+02 0.401E+01 -.103E+01   0.123E+01 -.186E+00 -.252E+01
   -.661E+02 0.470E-01 0.339E+01   0.670E+02 -.463E-01 -.933E+00   -.984E+00 -.686E-03 -.257E+01
   -.664E+02 0.355E-01 -.481E+01   0.671E+02 -.375E-01 0.235E+01   -.728E+00 0.174E-02 0.257E+01
   0.635E+02 -.409E+01 -.462E+01   -.641E+02 0.397E+01 0.224E+01   0.710E+00 0.121E+00 0.249E+01
   0.674E+02 -.545E+01 0.538E+01   -.684E+02 0.549E+01 -.284E+01   0.102E+01 -.370E-01 -.266E+01
   -.668E+02 0.231E-02 0.432E+01   0.678E+02 -.443E-03 -.184E+01   -.102E+01 -.226E-02 -.259E+01
   -.657E+02 0.245E-02 -.397E+01   0.663E+02 -.216E-02 0.151E+01   -.703E+00 -.390E-03 0.257E+01
   0.655E+02 -.291E+01 -.349E+01   -.661E+02 0.288E+01 0.891E+00   0.586E+00 0.380E-01 0.272E+01
   -.634E+02 0.289E+00 0.428E+02   0.662E+02 -.287E+00 -.434E+02   -.279E+01 -.284E-02 0.633E+00
 -----------------------------------------------------------------------------------------------
   0.116E+01 0.641E-01 0.667E+01   -.668E-12 -.177E-11 0.000E+00   -.116E+01 -.852E-01 -.670E+01


 POSITION                                       TOTAL-FORCE (eV/Angst)
 -----------------------------------------------------------------------------------
      2.73603      1.46801      4.67280         0.001393     -0.000846     -0.003732
      2.24797      4.38393      2.22251        -0.002015     -0.000163      0.002164
      7.21922      4.42554      0.20575        -0.001602      0.003276     -0.000391
      7.71985      1.46085      2.64315         0.003430      0.000867     -0.001387
      2.73954      1.45625      9.55091         0.003724      0.001536     -0.005460
      2.23699      4.38323      7.14154        -0.002651      0.000905     -0.003357
      7.25864      4.42972      5.08893        -0.005302     -0.005417      0.000153
      7.70942      1.47447      7.52543         0.001736      0.002827      0.003946
      2.66932      7.38443      4.83456        -0.005822     -0.000123      0.005316
      2.24892     10.38483      2.22208        -0.001094     -0.000815      0.003003
      7.22047     10.34329      0.20632        -0.000575     -0.002797      0.000649
      7.81586      7.38481      2.66338        -0.000833     -0.000462      0.002875
      2.72591      7.38478      9.50644        -0.002182     -0.000578      0.000042
      2.23842     10.38511      7.14098        -0.003444     -0.000029     -0.003295
      7.25971     10.33883      5.08958        -0.004240      0.005960     -0.001061
      7.75607      7.38454      7.49235         0.004742     -0.000614      0.014694
      2.73686     13.29966      4.67213         0.000441      0.001984     -0.002714
      2.25075     16.24292      2.23063         0.001759      0.000286     -0.003958
      7.22755     16.24282      0.20363         0.001705      0.000280     -0.001395
      7.72070     13.30733      2.64353         0.003279     -0.002114     -0.001133
      2.74014     13.31168      9.55043         0.002890     -0.001365     -0.004859
      2.24387     16.24291      7.11082         0.001960      0.000897     -0.002038
      7.22405     16.24287      5.08778         0.002846      0.000005     -0.001992
      7.71056     13.29379      7.52594         0.001961     -0.003717      0.003267
      1.22197      1.47025      3.47845        -0.000785     -0.001779     -0.000303
      3.79409      4.42720      1.04873        -0.000208     -0.000283     -0.000525
      8.72627      4.42062      1.41617        -0.001380      0.000939      0.002129
      6.18464      1.46557      3.82300         0.001580      0.000007     -0.000629
      4.43363      1.46738      0.73838        -0.000146      0.001429     -0.001115
      0.56419      4.39152      3.15748        -0.004165      0.000813     -0.000674
      5.52713      4.42476      4.15933         0.000749      0.001598      0.000724
      9.42383      1.45155      1.67983         0.002024      0.002077     -0.001425
      1.69665      0.26324      1.25549         0.001244      0.000095     -0.001451
      3.31860      5.65448      3.73720         0.002722     -0.000295      0.001458
      8.31348      3.14311      3.61710        -0.000802     -0.000693      0.002124
      6.66247      2.66979      1.17332        -0.000250      0.001112     -0.000382
      8.30741      5.53116      3.70286        -0.000726      0.001576      0.003593
      6.66649      0.26900      1.17179         0.001162      0.001011     -0.001079
      1.69440      2.65918      1.24913         0.000523      0.000457     -0.001946
      3.28451      3.24629      3.70916         0.002439     -0.003337      0.003099
      1.21334      1.46037      8.36820         0.002078      0.001724     -0.001446
      3.75276      4.42528      5.94733         0.000362     -0.002403      0.002738
      8.77342      4.40389      6.28593         0.000523      0.001190     -0.002131
      6.18744      1.46739      8.70873         0.000169     -0.000130      0.000033
      4.43433      1.48649      5.61651         0.000896      0.001406     -0.000843
      0.54997      4.40461      8.09055        -0.000661      0.001352      0.000278
      5.52118      4.39968      8.98372        -0.000813      0.002473     -0.000576
      9.41310      1.46325      6.58090         0.000643     -0.001995     -0.001047
      1.68517      0.26813      6.13583         0.001724      0.000087     -0.000839
      3.27680      5.60972      8.57985        -0.001196      0.002126      0.002744
      8.27168      3.21659      8.51054        -0.000389      0.001577      0.001470
      6.67661      2.66777      6.05234        -0.000326      0.000272     -0.000797
      8.29199      5.62441      8.49544         0.000109     -0.000753      0.002129
      6.65950      0.26996      6.05471         0.001566      0.000608      0.000218
      1.68160      2.66473      6.14434        -0.000421      0.000544     -0.000569
      3.28179      3.21557      8.59390        -0.000948      0.000468      0.002249
      1.27278      7.38478      3.51267        -0.004523      0.000204     -0.000451
      3.79548     10.34216      1.04876        -0.001121     -0.000339     -0.001205
      8.72724     10.34927      1.41729        -0.000096     -0.002168      0.002011
      6.19640      7.38455      3.86298        -0.003540      0.000415      0.015574
      4.47591      7.38571      0.55954        -0.005829     -0.000678     -0.000221
      0.56575     10.37677      3.15838        -0.002968     -0.001701     -0.001392
      5.52897     10.34292      4.15878         0.000493     -0.000236      0.001982
      9.52283      7.38543      1.65277        -0.002631     -0.001327      0.006551
      1.80499      6.19217      1.30072        -0.002061      0.000365     -0.000247
      3.28624     11.52164      3.70876         0.002172      0.001969      0.002973
      8.30874      9.23759      3.70355        -0.001606     -0.000749      0.003635
      6.63611      8.60543      1.06619        -0.004107      0.003841      0.000832
      8.31523     11.62583      3.61862        -0.000397      0.000020      0.001434
      6.63497      6.16359      1.06629        -0.004345     -0.003382     -0.002254
      1.80520      8.57733      1.30032        -0.001615      0.000296      0.001464
      3.32003      9.11322      3.73661         0.004553     -0.000346      0.001994
      1.14857      7.38425      8.41591        -0.003600     -0.001125      0.004575
      3.75437     10.34322      5.94653        -0.001308      0.001175      0.003745
      8.77458     10.36581      6.28656        -0.000898      0.000587     -0.002539
      6.21477      7.38431      8.58617         0.000922      0.001074      0.015220
      4.44218      7.38360      5.64875        -0.001611      0.001641      0.008891
      0.55144     10.36379      8.09081        -0.000658     -0.001864      0.000170
      5.52248     10.36878      8.98356        -0.000658     -0.001361      0.000677
      9.41975      7.38474      6.54381        -0.007687     -0.000058     -0.000147
      1.68098      6.18339      6.20538        -0.006462      0.000395      0.001301
      3.28359     11.55354      8.59331        -0.002225     -0.000453      0.002433
      8.29305      9.14436      8.49589         0.000240      0.001239      0.001631
      6.68478      8.58923      6.06846        -0.000519      0.003152      0.003552
      8.27350     11.55219      8.51166        -0.000772     -0.001300      0.000758
      6.68485      6.17926      6.06838        -0.000140     -0.003042      0.002950
      1.68136      8.58515      6.20536        -0.005726     -0.001800      0.001845
      3.27742      9.15960      8.57989        -0.001678     -0.001992      0.001768
      1.22261     13.29639      3.47769        -0.001063      0.001312      0.000116
      3.77500     16.24298      1.04299         0.000618     -0.000376     -0.001223
      8.74918     16.24395      1.39048         0.001251     -0.000200     -0.001506
      6.18583     13.30206      3.82357         0.001725     -0.000056     -0.000317
      4.43432     13.30003      0.73863        -0.000134     -0.001186     -0.001166
      0.54859     16.24406      3.17744         0.002552      0.000112     -0.002019
      5.52711     16.24282      4.13446         0.000813     -0.000047     -0.003340
      9.42401     13.31659      1.67934         0.001828     -0.002431     -0.000188
      1.69395     12.10873      1.24770         0.001612      0.000009     -0.001699
      3.29553     17.44251      3.70237         0.000728      0.000366     -0.002052
      8.27855     15.04508      3.61900         0.001642      0.000170     -0.001401
      6.66692     14.49905      1.17227         0.001595     -0.001030     -0.000909
      8.27814     17.44159      3.61975         0.002033      0.000332     -0.002282
      6.66301     12.09833      1.17470         0.000228     -0.000570     -0.000151
      1.69638     14.50498      1.25520         0.001413     -0.000923     -0.000879
      3.29505     15.04390      3.70292         0.001159     -0.000225     -0.001707
      1.21379     13.30735      8.36759         0.001227     -0.002255     -0.001383
      3.77127     16.24361      5.92990        -0.000551     -0.000268     -0.003222
      8.74751     16.24339      6.26956         0.001353     -0.000105     -0.000268
      6.18862     13.29996      8.70940         0.000139      0.000951     -0.000123
      4.43495     13.28225      5.61662         0.000599     -0.001045     -0.001791
      0.54400     16.24358      8.05777         0.001877      0.000992     -0.000588
      5.53016     16.24247      9.01110         0.000423      0.000278      0.000138
      9.41381     13.30423      6.58000         0.000825      0.002268     -0.001110
      1.68242     12.10325      6.14342         0.000242     -0.000426     -0.000154
      3.29720     17.44039      8.57727         0.001573     -0.000077     -0.002018
      8.27394     15.04381      8.49749         0.001064      0.000142     -0.000551
      6.66051     14.49781      6.05529         0.000361     -0.000341      0.000080
      8.27352     17.44279      8.49746         0.000881     -0.000158     -0.000612
      6.67650     12.09990      6.05340         0.000508      0.000035     -0.000714
      1.68543     14.50017      6.13555         0.002552     -0.000977     -0.001370
      3.29682     15.04535      8.57751         0.001788     -0.000142     -0.002300
      0.95705      1.46026      1.97492         0.000439      0.002275     -0.002553
      4.02972      4.42719      4.44893        -0.000535      0.000646     -0.002808
      9.01145      4.37770      2.91697         0.001854      0.002262     -0.001017
      5.93529      1.47009      0.45101         0.002058      0.001091     -0.000220
      0.94960      1.46187      6.86531        -0.001027      0.000029     -0.002939
      4.03101      4.41724      9.30034        -0.000912      0.001772      0.005787
      9.01117      4.41163      7.79146        -0.000316      0.001556      0.002386
      5.93766      1.47438      5.32830         0.001744     -0.001606     -0.001634
      1.02308      7.38490      1.99973        -0.002577     -0.000097      0.004673
      4.03150     10.34049      4.44814        -0.001259     -0.000941     -0.001613
      9.01288     10.39119      2.91806         0.001981     -0.002293     -0.002227
      6.00414      7.38475      0.32449         0.001843      0.001037     -0.022803
      0.93101      7.38435      6.90877         0.005016     -0.000404      0.000205
      4.03231     10.35186      9.30030        -0.000918     -0.001653      0.004799
      9.01257     10.35708      7.79206        -0.000210     -0.001197      0.003250
      5.95248      7.38416      5.36291        -0.002639      0.000158     -0.023714
      0.95724     13.30761      1.97421        -0.000066     -0.002437     -0.002487
      4.02862     16.24322      4.42541         0.003212      0.000233     -0.002785
      9.00919     16.24364      2.89439         0.000408     -0.000198     -0.002021
      5.93597     13.29760      0.45162         0.001987     -0.000397     -0.000094
      0.95025     13.30599      6.86467        -0.001130     -0.000373     -0.002876
      4.03186     16.24288      9.30204         0.003216     -0.000104     -0.002512
      9.00425     16.24343      7.77409        -0.000067      0.000038     -0.001336
      5.93836     13.29351      5.32883         0.001364      0.001631     -0.001669
      4.40626      7.38209      2.66944         0.004671     -0.000662      0.006863
 -----------------------------------------------------------------------------------
    total drift:                                0.002553     -0.021127     -0.031182


--------------------------------------------------------------------------------------------------------



  FREE ENERGIE OF THE ION-ELECTRON SYSTEM (eV)
  ---------------------------------------------------
  free  energy   TOTEN  =     -1019.99977498 eV

  energy  without entropy=    -1019.99977498  energy(sigma->0) =    -1019.99977498



--------------------------------------------------------------------------------------------------------


    POTLOK:  cpu time      0.5538: real time      0.5563


--------------------------------------------------------------------------------------------------------




--------------------------------------------------------------------------------------------------------


 writing wavefunctions
     LOOP+:  cpu time    146.9777: real time    173.8151
    4ORBIT:  cpu time      0.0000: real time      0.0000



 total charge

# of ion       s       p       d       tot
------------------------------------------
    1        0.270   6.321   5.544  12.136
    2        0.272   6.324   5.550  12.145
    3        0.271   6.323   5.547  12.140
    4        0.272   6.326   5.547  12.144
    5        0.272   6.326   5.548  12.145
    6        0.272   6.327   5.550  12.149
    7        0.271   6.323   5.548  12.141
    8        0.270   6.322   5.544  12.137
    9        0.276   6.333   5.578  12.187
   10        0.272   6.324   5.550  12.145
   11        0.271   6.323   5.547  12.140
   12        0.202   6.207   5.930  12.339
   13        0.274   6.329   5.553  12.156
   14        0.272   6.327   5.550  12.148
   15        0.271   6.323   5.548  12.141
   16        0.280   6.340   5.560  12.180
   17        0.270   6.321   5.544  12.135
   18        0.271   6.324   5.545  12.140
   19        0.271   6.323   5.545  12.139
   20        0.272   6.326   5.547  12.144
   21        0.272   6.326   5.548  12.145
   22        0.271   6.323   5.545  12.139
   23        0.271   6.323   5.545  12.139
   24        0.270   6.322   5.544  12.136
   25        1.567   3.603   0.000   5.171
   26        1.567   3.599   0.000   5.166
   27        1.566   3.602   0.000   5.168
   28        1.568   3.602   0.000   5.170
   29        1.565   3.598   0.000   5.163
   30        1.564   3.599   0.000   5.162
   31        1.565   3.598   0.000   5.163
   32        1.566   3.597   0.000   5.163
   33        1.564   3.570   0.000   5.135
   34        1.563   3.572   0.000   5.135
   35        1.565   3.567   0.000   5.132
   36        1.564   3.568   0.000   5.132
   37        1.567   3.574   0.000   5.141
   38        1.564   3.570   0.000   5.134
   39        1.564   3.570   0.000   5.134
   40        1.564   3.569   0.000   5.133
   41        1.568   3.604   0.000   5.171
   42        1.567   3.606   0.000   5.173
   43        1.568   3.605   0.000   5.173
   44        1.568   3.603   0.000   5.171
   45        1.565   3.596   0.000   5.161
   46        1.565   3.598   0.000   5.163
   47        1.566   3.596   0.000   5.162
   48        1.565   3.599   0.000   5.164
   49        1.564   3.568   0.000   5.133
   50        1.564   3.568   0.000   5.132
   51        1.564   3.569   0.000   5.133
   52        1.564   3.568   0.000   5.132
   53        1.565   3.567   0.000   5.132
   54        1.564   3.567   0.000   5.132
   55        1.564   3.569   0.000   5.133
   56        1.564   3.571   0.000   5.135
   57        1.566   3.600   0.000   5.166
   58        1.567   3.599   0.000   5.166
   59        1.566   3.602   0.000   5.168
   60        1.564   3.637   0.000   5.201
   61        1.561   3.641   0.000   5.202
   62        1.564   3.599   0.000   5.162
   63        1.565   3.598   0.000   5.163
   64        1.568   3.606   0.000   5.174
   65        1.564   3.566   0.000   5.130
   66        1.564   3.569   0.000   5.133
   67        1.567   3.574   0.000   5.141
   68        1.565   3.578   0.000   5.143
   69        1.565   3.567   0.000   5.132
   70        1.565   3.578   0.000   5.143
   71        1.564   3.567   0.000   5.130
   72        1.563   3.572   0.000   5.135
   73        1.570   3.602   0.000   5.172
   74        1.567   3.606   0.000   5.173
   75        1.568   3.605   0.000   5.173
   76        1.572   3.618   0.000   5.189
   77        1.563   3.595   0.000   5.157
   78        1.565   3.598   0.000   5.163
   79        1.566   3.596   0.000   5.162
   80        1.568   3.609   0.000   5.177
   81        1.565   3.575   0.000   5.140
   82        1.564   3.571   0.000   5.135
   83        1.565   3.567   0.000   5.132
   84        1.564   3.571   0.000   5.136
   85        1.564   3.569   0.000   5.133
   86        1.564   3.571   0.000   5.136
   87        1.565   3.575   0.000   5.140
   88        1.563   3.568   0.000   5.131
   89        1.567   3.603   0.000   5.170
   90        1.568   3.603   0.000   5.170
   91        1.567   3.604   0.000   5.171
   92        1.568   3.602   0.000   5.170
   93        1.565   3.598   0.000   5.163
   94        1.565   3.597   0.000   5.162
   95        1.565   3.599   0.000   5.164
   96        1.566   3.597   0.000   5.163
   97        1.564   3.570   0.000   5.134
   98        1.564   3.568   0.000   5.133
   99        1.564   3.570   0.000   5.134
  100        1.564   3.569   0.000   5.133
  101        1.564   3.569   0.000   5.134
  102        1.564   3.568   0.000   5.133
  103        1.564   3.570   0.000   5.135
  104        1.564   3.568   0.000   5.133
  105        1.568   3.604   0.000   5.171
  106        1.568   3.603   0.000   5.170
  107        1.568   3.604   0.000   5.171
  108        1.568   3.603   0.000   5.171
  109        1.565   3.596   0.000   5.161
  110        1.565   3.597   0.000   5.162
  111        1.565   3.598   0.000   5.164
  112        1.565   3.599   0.000   5.164
  113        1.564   3.568   0.000   5.133
  114        1.564   3.570   0.000   5.134
  115        1.564   3.568   0.000   5.132
  116        1.564   3.567   0.000   5.132
  117        1.564   3.568   0.000   5.132
  118        1.564   3.568   0.000   5.132
  119        1.564   3.568   0.000   5.132
  120        1.564   3.570   0.000   5.134
  121        0.912   1.501   0.000   2.413
  122        0.913   1.501   0.000   2.413
  123        0.913   1.503   0.000   2.416
  124        0.913   1.501   0.000   2.413
  125        0.913   1.501   0.000   2.414
  126        0.912   1.498   0.000   2.410
  127        0.913   1.504   0.000   2.417
  128        0.912   1.500   0.000   2.412
  129        0.914   1.508   0.000   2.422
  130        0.913   1.501   0.000   2.413
  131        0.913   1.503   0.000   2.415
  132        0.914   1.517   0.000   2.431
  133        0.915   1.511   0.000   2.426
  134        0.912   1.498   0.000   2.410
  135        0.913   1.504   0.000   2.417
  136        0.913   1.503   0.000   2.416
  137        0.913   1.501   0.000   2.413
  138        0.913   1.501   0.000   2.414
  139        0.912   1.501   0.000   2.413
  140        0.913   1.501   0.000   2.413
  141        0.913   1.501   0.000   2.414
  142        0.913   1.501   0.000   2.414
  143        0.912   1.500   0.000   2.413
  144        0.912   1.499   0.000   2.412
  145        0.065   6.010   0.000   6.076
--------------------------------------------------
tot        178.696 538.024 133.555 850.274



 magnetization (x)

# of ion       s       p       d       tot
------------------------------------------
    1        0.024   0.031   4.301   4.356
    2        0.024   0.032   4.295   4.351
    3        0.023   0.031   4.301   4.355
    4        0.023   0.031   4.304   4.358
    5        0.023   0.031   4.303   4.357
    6        0.024   0.031   4.301   4.356
    7        0.023   0.032   4.299   4.354
    8        0.023   0.031   4.303   4.357
    9        0.022   0.033   4.269   4.325
   10        0.024   0.032   4.295   4.351
   11        0.023   0.031   4.301   4.355
   12        0.025   0.022   3.736   3.783
   13        0.024   0.032   4.298   4.353
   14        0.024   0.031   4.301   4.356
   15        0.023   0.032   4.299   4.354
   16        0.025   0.031   4.299   4.356
   17        0.024   0.031   4.301   4.356
   18        0.023   0.031   4.303   4.358
   19        0.023   0.031   4.303   4.358
   20        0.023   0.031   4.304   4.358
   21        0.023   0.031   4.303   4.357
   22        0.023   0.031   4.303   4.357
   23        0.023   0.031   4.303   4.358
   24        0.023   0.031   4.303   4.357
   25        0.007   0.097   0.000   0.104
   26        0.007   0.092   0.000   0.099
   27        0.007   0.098   0.000   0.106
   28        0.007   0.095   0.000   0.102
   29        0.008   0.102   0.000   0.109
   30        0.008   0.111   0.000   0.118
   31        0.007   0.089   0.000   0.096
   32        0.008   0.096   0.000   0.104
   33        0.011   0.128   0.000   0.139
   34        0.010   0.109   0.000   0.118
   35        0.011   0.131   0.000   0.142
   36        0.011   0.124   0.000   0.135
   37        0.009   0.108   0.000   0.117
   38        0.011   0.125   0.000   0.136
   39        0.011   0.130   0.000   0.142
   40        0.011   0.123   0.000   0.134
   41        0.007   0.095   0.000   0.103
   42        0.007   0.092   0.000   0.100
   43        0.007   0.094   0.000   0.101
   44        0.007   0.097   0.000   0.104
   45        0.008   0.103   0.000   0.110
   46        0.008   0.104   0.000   0.112
   47        0.007   0.092   0.000   0.100
   48        0.008   0.098   0.000   0.105
   49        0.011   0.128   0.000   0.139
   50        0.011   0.129   0.000   0.140
   51        0.011   0.124   0.000   0.135
   52        0.011   0.122   0.000   0.133
   53        0.011   0.124   0.000   0.135
   54        0.011   0.127   0.000   0.138
   55        0.011   0.128   0.000   0.139
   56        0.012   0.130   0.000   0.141
   57        0.008   0.104   0.000   0.112
   58        0.007   0.092   0.000   0.099
   59        0.007   0.098   0.000   0.106
   60        0.003   0.027   0.000   0.031
   61        0.008   0.090   0.000   0.098
   62        0.008   0.111   0.000   0.118
   63        0.007   0.089   0.000   0.096
   64        0.003   0.044   0.000   0.048
   65        0.011   0.126   0.000   0.138
   66        0.011   0.123   0.000   0.134
   67        0.009   0.108   0.000   0.117
   68        0.009   0.093   0.000   0.103
   69        0.011   0.131   0.000   0.142
   70        0.009   0.093   0.000   0.103
   71        0.011   0.127   0.000   0.138
   72        0.010   0.109   0.000   0.118
   73        0.007   0.097   0.000   0.103
   74        0.007   0.092   0.000   0.100
   75        0.007   0.094   0.000   0.101
   76        0.007   0.095   0.000   0.103
   77        0.008   0.096   0.000   0.104
   78        0.008   0.104   0.000   0.112
   79        0.007   0.092   0.000   0.100
   80        0.007   0.095   0.000   0.102
   81        0.011   0.128   0.000   0.140
   82        0.012   0.130   0.000   0.141
   83        0.011   0.124   0.000   0.135
   84        0.011   0.126   0.000   0.137
   85        0.011   0.124   0.000   0.135
   86        0.011   0.126   0.000   0.137
   87        0.011   0.128   0.000   0.140
   88        0.011   0.129   0.000   0.140
   89        0.007   0.097   0.000   0.104
   90        0.007   0.096   0.000   0.103
   91        0.007   0.096   0.000   0.104
   92        0.007   0.095   0.000   0.102
   93        0.008   0.102   0.000   0.109
   94        0.008   0.100   0.000   0.108
   95        0.008   0.099   0.000   0.107
   96        0.008   0.096   0.000   0.104
   97        0.011   0.130   0.000   0.142
   98        0.011   0.128   0.000   0.139
   99        0.011   0.126   0.000   0.137
  100        0.011   0.125   0.000   0.136
  101        0.011   0.126   0.000   0.137
  102        0.011   0.124   0.000   0.135
  103        0.011   0.128   0.000   0.139
  104        0.011   0.127   0.000   0.139
  105        0.007   0.095   0.000   0.103
  106        0.007   0.096   0.000   0.104
  107        0.007   0.097   0.000   0.104
  108        0.007   0.097   0.000   0.104
  109        0.008   0.103   0.000   0.110
  110        0.008   0.101   0.000   0.109
  111        0.008   0.099   0.000   0.106
  112        0.008   0.098   0.000   0.105
  113        0.011   0.128   0.000   0.139
  114        0.011   0.128   0.000   0.139
  115        0.011   0.126   0.000   0.137
  116        0.011   0.127   0.000   0.138
  117        0.011   0.126   0.000   0.137
  118        0.011   0.123   0.000   0.133
  119        0.011   0.128   0.000   0.139
  120        0.011   0.128   0.000   0.139
  121        0.004   0.013   0.000   0.017
  122        0.004   0.012   0.000   0.016
  123        0.004   0.013   0.000   0.017
  124        0.004   0.013   0.000   0.017
  125        0.004   0.013   0.000   0.017
  126        0.004   0.012   0.000   0.016
  127        0.004   0.013   0.000   0.017
  128        0.004   0.013   0.000   0.016
  129        0.003   0.011   0.000   0.015
  130        0.004   0.012   0.000   0.016
  131        0.004   0.013   0.000   0.017
  132        0.005   0.014   0.000   0.018
  133        0.004   0.013   0.000   0.017
  134        0.004   0.012   0.000   0.016
  135        0.004   0.013   0.000   0.017
  136        0.004   0.012   0.000   0.016
  137        0.004   0.013   0.000   0.017
  138        0.004   0.013   0.000   0.016
  139        0.004   0.013   0.000   0.017
  140        0.004   0.013   0.000   0.017
  141        0.004   0.013   0.000   0.017
  142        0.004   0.013   0.000   0.017
  143        0.004   0.013   0.000   0.017
  144        0.004   0.013   0.000   0.016
  145        0.000   0.000   0.000   0.000
--------------------------------------------------
tot          1.527  11.533 102.629 115.689


 total amount of memory used by VASP MPI-rank0   264807. kBytes
=======================================================================

   base      :      30000. kBytes
   nonlr-proj:      30718. kBytes
   fftplans  :       9535. kBytes
   grid      :      26700. kBytes
   one-center:       1150. kBytes
   wavefun   :     166704. kBytes

  
  
 General timing and accounting informations for this job:
 ========================================================
  
                  Total CPU time used (sec):      193.626
                            User time (sec):      185.719
                          System time (sec):        7.908
                         Elapsed time (sec):      253.224
  
                   Maximum memory used (kb):      871880.
                   Average memory used (kb):          N/A
  
                          Minor page faults:       147124
                          Major page faults:           36
                 Voluntary context switches:       181199
